 vasp.5.4.4.18Apr17-6-g9f103f2a35 (build Apr 25 2017 18:29:20) complex

 executed on      IFC91_ompi_syO2 date 2018.05.09  05:00:52

 INCAR:
 POTCAR:    PAW_PBE Cr 06Sep2000
 POTCAR:    PAW_PBE I 08Apr2002

 POTCAR:    PAW_PBE Cr 06Sep2000
   VRHFIN =Cr : d5 s1

   TITEL  = PAW_PBE Cr 06Sep2000
   POMASS =   51.996; ZVAL   =    6.000    mass and valenz
   ENMAX  =  227.080; ENMIN  =  170.310 eV

 POTCAR:    PAW_PBE I 08Apr2002
   VRHFIN =I : s2p5

   TITEL  = PAW_PBE I 08Apr2002
   POMASS =  126.904; ZVAL   =    7.000    mass and valenz
   ENMAX  =  175.647; ENMIN  =  131.735 eV

  PAW_PBE Cr 06Sep2000                  :
  PAW_PBE I 08Apr2002                   :

 POSCAR: POSCAR
  positions in direct lattice
  velocities in cartesian coordinates
 exchange correlation table for  LEXCH =        8
   RHO(1)=    0.500       N(1)  =     2000
   RHO(2)=  100.500       N(2)  =     4000

 ion  position               nearest neighbor table
   1  0.000  0.000  0.500-   3 2.74   4 2.74   5 2.74   6 2.74   7 2.74   8 2.74
   2  0.333  0.667  0.500-   5 2.74   8 2.74   6 2.74   4 2.74   7 2.74   3 2.74
   3  0.307  0.973  0.461-   1 2.74   2 2.74
   4  0.027  0.333  0.461-   2 2.74   1 2.74
   5  0.307  0.333  0.539-   2 2.74   1 2.74
   6  0.667  0.973  0.539-   2 2.74   1 2.74
   7  0.027  0.693  0.539-   1 2.74   2 2.74
   8  0.667  0.693  0.461-   2 2.74   1 2.74

  LATTYP: Found a hexagonal cell.
 ALAT       =     7.0020000000
 C/A-ratio  =     5.7126535276

  Lattice vectors:

 A1 = (   7.0020000000,   0.0000000000,   0.0000000000)
 A2 = (  -3.5010000000,   6.0639098773,   0.0000000000)
 A3 = (   0.0000000000,   0.0000000000,  40.0000000000)

Analysis of symmetry for initial positions (statically):
 Subroutine PRICEL returns:
 Original cell was already a primitive cell.

 Routine SETGRP: Setting up the symmetry group for a
 hexagonal supercell.

 Subroutine GETGRP returns: Found 12 space group operations
 (whereof  6 operations were pure point group operations)
 out of a pool of 24 trial point group operations.

The static configuration has the point symmetry D_3 .
 The point group associated with its full space group is D_3d.

Analysis of symmetry for dynamics (positions and initial velocities):
 Subroutine PRICEL returns:
 Original cell was already a primitive cell.

[...]

The dynamic configuration has the point symmetry D_3 .
 The point group associated with its full space group is D_3d.

Analysis of structural, dynamic, and magnetic symmetry:
 Subroutine PRICEL returns:
 Original cell was already a primitive cell.

 Routine SETGRP: Setting up the symmetry group for a
 hexagonal supercell.

 Subroutine GETGRP returns: Found 12 space group operations
 (whereof  6 operations were pure point group operations)
 out of a pool of 24 trial point group operations.

The magnetic configuration has the point symmetry D_3 .
 The point group associated with its full space group is D_3d.

 Subroutine INISYM returns: Found 12 space group operations
 (whereof  6 operations are pure point group operations),
 and found     1 'primitive' translations

 KPOINTS: K-Points   # First line comment

Automatic generation of k-mesh.
Space group operators:
 irot       det(A)        alpha          n_x          n_y          n_z        tau_x        tau_y        tau_z
    1     1.000000     0.000000     1.000000     0.000000     0.000000     0.000000     0.000000     0.000000
    2     1.000000   120.000000     0.000000     0.000000    -1.000000     0.000000     0.000000     0.000000
    3     1.000000   120.000000     0.000000     0.000000     1.000000     0.000000     0.000000     0.000000
    4     1.000000   180.000000     0.866025    -0.500000     0.000000     0.000000     0.000000     0.000000
    5     1.000000   180.000000     0.000000     1.000000     0.000000     0.000000     0.000000     0.000000
    6     1.000000   180.000000     0.866025     0.500000     0.000000     0.000000     0.000000     0.000000
    7    -1.000000     0.000000     1.000000     0.000000     0.000000     0.333333     0.666667     0.000000
    8    -1.000000   120.000000     0.000000     0.000000    -1.000000     0.333333     0.666667     0.000000
    9    -1.000000   120.000000     0.000000     0.000000     1.000000     0.333333     0.666667     0.000000
   10    -1.000000   180.000000     0.866025    -0.500000     0.000000     0.333333     0.666667     0.000000
   11    -1.000000   180.000000     0.000000     1.000000     0.000000     0.333333     0.666667     0.000000
   12    -1.000000   180.000000     0.866025     0.500000     0.000000     0.333333     0.666667     0.000000

 Subroutine IBZKPT returns following result:

 Found     16 irreducible k-points:

 Following reciprocal coordinates:
            Coordinates               Weight
  0.000000  0.000000  0.000000      1.000000
  0.090909 -0.000000  0.000000      6.000000
  0.181818 -0.000000  0.000000      6.000000
  0.272727 -0.000000  0.000000      6.000000
  0.363636 -0.000000  0.000000      6.000000
  0.454545 -0.000000  0.000000      6.000000
  0.090909  0.090909  0.000000      6.000000
  0.181818  0.090909  0.000000     12.000000
  0.272727  0.090909  0.000000     12.000000
  0.363636  0.090909  0.000000     12.000000
  0.454545  0.090909  0.000000      6.000000
  0.181818  0.181818  0.000000      6.000000
  0.272727  0.181818  0.000000     12.000000
  0.363636  0.181818  0.000000     12.000000
  0.272727  0.272727  0.000000      6.000000
  0.363636  0.272727  0.000000      6.000000

 Following cartesian coordinates:
            Coordinates               Weight
  0.000000  0.000000  0.000000      1.000000
  0.012983  0.007496  0.000000      6.000000
  0.025967  0.014992  0.000000      6.000000
  0.038950  0.022488  0.000000      6.000000
  0.051933  0.029984  0.000000      6.000000
  0.064917  0.037480  0.000000      6.000000
  0.012983  0.022488  0.000000      6.000000
  0.025967  0.029984  0.000000     12.000000
  0.038950  0.037480  0.000000     12.000000
  0.051933  0.044975  0.000000     12.000000
  0.064917  0.052471  0.000000      6.000000
  0.025967  0.044975  0.000000      6.000000
  0.038950  0.052471  0.000000     12.000000
  0.051933  0.059967  0.000000     12.000000
  0.038950  0.067463  0.000000      6.000000
  0.051933  0.074959  0.000000      6.000000

 TETIRR: Found     66 inequivalent tetrahedra from      726

 SYSTEM =  monolayer-CrI3
 POSCAR =  POSCAR

 Startparameter for this run:
   NWRITE =      2    write-flag & timer
   PREC   = accura    normal or accurate (medium, high low for compatibility)
   ISTART =      0    job   : 0-new  1-cont  2-samecut
   ICHARG =      2    charge: 1-file 2-atom 10-const
   ISPIN  =      2    spin polarized calculation?
   LNONCOLLINEAR =      F non collinear calculations
   LSORBIT =      F    spin-orbit coupling
   INIWAV =      1    electr: 0-lowe 1-rand  2-diag
   LASPH  =      F    aspherical Exc in radial PAW
   METAGGA=      F    non-selfconsistent MetaGGA calc.

 Electronic Relaxation 1
   ENCUT  =  300.0 eV  22.05 Ry    4.70 a.u.   9.89  9.89 56.49*2*pi/ulx,y,z
   ENINI  =  300.0     initial cutoff
   ENAUG  =  402.1 eV  augmentation charge cutoff
   NELM   =     60;   NELMIN=  6; NELMDL= -5     # of ELM steps
   EDIFF  = 0.1E-06   stopping-criterion for ELM
   LREAL  =      F    real-space projection
   NLSPLINE    = F    spline interpolate recip. space projectors
   LCOMPAT=      F    compatible to vasp.4.4
   GGA_COMPAT  = T    GGA compatible to vasp.4.4-vasp.4.6
   LMAXPAW     = -100 max onsite density
   LMAXMIX     =    2 max onsite mixed and CHGCAR
   VOSKOWN=      0    Vosko Wilk Nusair interpolation
   ROPT   =    0.00000   0.00000
 Ionic relaxation
   EDIFFG = -.1E-05   stopping-criterion for IOM
   NSW    =    100    number of steps for IOM
   NBLOCK =      1;   KBLOCK =    100    inner block; outer block
   IBRION =      1    ionic relax: 0-MD 1-quasi-New 2-CG
   NFREE  =      0    steps in history (QN), initial steepest desc. (CG)
   ISIF   =      2    stress and relaxation
   IWAVPR =     11    prediction:  0-non 1-charg 2-wave 3-comb
   ISYM   =      2    0-nonsym 1-usesym 2-fastsym
   LCORR  =      T    Harris-Foulkes like correction to forces

   POTIM  = 0.5000    time-step for ionic-motion
   TEIN   =    0.0    initial temperature
   TEBEG  =    0.0;   TEEND  =   0.0 temperature during run
   SMASS  =  -3.00    Nose mass-parameter (am)
   estimated Nose-frequenzy (Omega)   =  0.10E-29 period in steps =****** mass=  -0.112E-26a.u.
   SCALEE = 1.0000    scale energy and forces
   NPACO  =    256;   APACO  = 16.0  distance and # of slots for P.C.
   PSTRESS=    0.0 pullay stress

  Mass of Ions in am
   POMASS =  52.00126.90
  Ionic Valenz
   ZVAL   =   6.00  7.00
  Atomic Wigner-Seitz radii
  virtual crystal weights
   VCA    =   1.00  1.00
   NELECT =      54.0000    total number of electrons
   NUPDOWN=      -1.0000    fix difference up-down

 DOS related values:
   EMIN   =  10.00;   EMAX   =-10.00  energy-range for DOS
   EFERMI =   0.00
   ISMEAR =    -5;   SIGMA  =   0.05  broadening in eV -4-tet -1-fermi 0-gaus

 Electronic relaxation 2 (details)
   IALGO  =     38    algorithm
   LDIAG  =      T    sub-space diagonalisation (order eigenvalues)
   LSUBROT=      F    optimize rotation matrix (better conditioning)
   TURBO    =      0    0=normal 1=particle mesh
   IRESTART =      0    0=no restart 2=restart with 2 vectors
   NREBOOT  =      0    no. of reboots
   NMIN     =      0    reboot dimension
   EREF     =   0.00    reference energy to select bands
   IMIX   =      4    mixing-type and parameters
     AMIX     =   0.40;   BMIX     =  1.00
     AMIX_MAG =   1.60;   BMIX_MAG =  1.00
     AMIN     =   0.10
     WC   =   100.;   INIMIX=   1;  MIXPRE=   1;  MAXMIX=  40

 Intra band minimization:
   WEIMIN = 0.0010     energy-eigenvalue tresh-hold
   EBREAK =  0.66E-09  absolut break condition
   DEPER  =   0.30     relativ break condition

   TIME   =   0.40     timestep for ELM

  volume/ion in A,a.u.               =     212.30      1432.65
  Fermi-wavevector in a.u.,A,eV,Ry     =   0.518634  0.980076  3.659714  0.268981
  Thomas-Fermi vector in A             =   1.535622

 Write flags
   LWAVE        =      T    write WAVECAR
   LDOWNSAMPLE  =      F    k-point downsampling of WAVECAR
   LCHARG       =      T    write CHGCAR
   LVTOT        =      F    write LOCPOT, total local potential
   LVHAR        =      F    write LOCPOT, Hartree potential only
   LELF         =      F    write electronic localiz. function (ELF)
   LORBIT       =     11    0 simple, 1 ext, 2 COOP (PROOUT), +10 PAW based schemes

 Dipole corrections
   LMONO  =      F    monopole corrections only (constant potential shift)
   LDIPOL =      F    correct potential (dipole corrections)
   IDIPOL =      0    1-x, 2-y, 3-z, 4-all directions
   EPSILON=  1.0000000 bulk dielectric constant

 Exchange correlation treatment:
   GGA     =    PE    GGA type
   VOSKOWN=      0    Vosko Wilk Nusair interpolation
   LHFCALC =     F    Hartree Fock is set to
   LHFONE  =     F    Hartree Fock one center treatment
   AEXX    =    0.0000 exact exchange contribution

 Linear response parameters
[...]
      8      -8.1560      1.00000
      9      -7.6245      1.00000
     10      -7.6245      1.00000
     11      -7.5459      1.00000
     12      -7.5459      1.00000
     13      -7.3283      1.00000
     14      -6.9293      1.00000
     15      -6.9293      1.00000
     16      -6.6396      1.00000
     17      -6.4099      1.00000
     18      -6.4099      1.00000
     19      -5.7707      1.00000
     20      -5.4413      1.00000
     21      -5.4413      1.00000
     22      -5.3302      1.00000
     23      -5.2948      1.00000
     24      -5.0454      1.00000
     25      -5.0454      1.00000
     26      -4.8910      1.00000
     27      -4.7948      1.00000
     28      -4.7948      1.00000
     29      -4.3586      1.00000
     30      -4.3586      1.00000
     31      -3.1412      0.00000
     32      -3.1412      0.00000
     33      -2.7325      0.00000
     34      -2.7325      0.00000
     35       0.3199      0.00000
     36       0.5632      0.00000
     37       1.0248      0.00000
     38       1.2142      0.00000

[...]

 soft charge-density along one line, spin component           1
         0         1         2         3         4         5         6         7         8         9
 total charge-density along one line

[...]

------------------------ aborting loop because EDIFF is reached ----------------------------------------

 total charge

# of ion       s       p       d       tot
    1        0.323   0.412   4.181   4.916
    2        0.323   0.412   4.181   4.916
    3        1.511   2.766   0.022   4.299
    4        1.513   2.766   0.021   4.300
    5        1.513   2.766   0.021   4.300
    6        1.515   2.758   0.021   4.294
    7        1.511   2.766   0.022   4.299
    8        1.515   2.758   0.021   4.294
tot          9.723  17.406   8.490  35.619

 magnetization (x)

[...]

  FORCE on cell =-STRESS in cart. coord.  units (eV):
  Direction    XX          YY          ZZ          XY          YZ          ZX
  Alpha Z     8.00747     8.00747     8.00747
  Ewald   15162.50996 15162.50996-16609.39102     0.00000     0.00000    -0.00000
  Hartree 15568.20061 15568.20061-15308.77029    -0.00000     0.00000     0.00000
  E(xc)    -215.62145  -215.62145  -216.08833     0.00000    -0.00000    -0.00000
  Local  -31721.22503-31721.22523 30926.39503    -0.00017     0.00000     0.00000
  n-local   817.02902   817.36801   817.48856    -0.74969    -0.50439     0.12709
  augment  -160.21891  -160.21871  -160.70160     0.00017     0.00000     0.00000
  Kinetic   541.51148   540.64047   542.99665     1.31610    -0.34556     0.01418
  Fock        0.00000     0.00000     0.00000     0.00000     0.00000     0.00000
  Total      -0.07286    -0.07286    -0.06353     0.00000     0.00000    -0.00000
  in kB      -0.06873    -0.06873    -0.05993     0.00000     0.00000    -0.00000

 VOLUME and BASIS-vectors are now :
  energy-cutoff  :      300.00
  volume of cell :     1698.38
      direct lattice vectors                 reciprocal lattice vectors
     7.002000000  0.000000000  0.000000000     0.142816338  0.082455051  0.000000000
    -3.501000000  6.063909877  0.000000000     0.000000000  0.164910103  0.000000000
     0.000000000  0.000000000 40.000000000     0.000000000  0.000000000  0.025000000

[...]

 FORCES acting on ions
    electron-ion (+dipol)            ewald-force                    non-local-force                 convergence-correction
   0.449E-06 -.259E-06 0.895E-12   -.113E-11 0.625E-12 -.142E-13   0.932E-18 0.108E-18 -.159E-20   0.447E-11 -.259E-11 0.457E-13
   -.859E-06 0.496E-06 -.628E-12   -.103E-10 0.609E-11 -.284E-13   -.143E-17 0.486E-18 0.847E-21   -.467E-11 0.267E-11 0.263E-13
   -.263E+02 -.455E+02 0.404E+03   0.272E+02 0.472E+02 -.406E+03   -.939E+00 -.163E+01 0.268E+01   -.828E-07 -.143E-06 -.823E-05
   0.526E+02 -.468E-05 0.404E+03   -.545E+02 -.534E-11 -.406E+03   0.188E+01 -.121E-17 0.268E+01   0.165E-06 0.865E-10 -.823E-05
   -.526E+02 -.639E-05 -.404E+03   0.545E+02 -.105E-10 0.406E+03   -.188E+01 0.973E-18 -.268E+01   -.165E-06 -.105E-09 0.823E-05
   0.263E+02 -.455E+02 -.404E+03   -.272E+02 0.472E+02 0.406E+03   0.939E+00 -.163E+01 -.268E+01   0.827E-07 -.143E-06 0.823E-05
   0.263E+02 0.455E+02 -.404E+03   -.272E+02 -.472E+02 0.406E+03   0.939E+00 0.163E+01 -.268E+01   0.827E-07 0.143E-06 0.823E-05
   -.263E+02 0.455E+02 0.404E+03   0.272E+02 -.472E+02 -.406E+03   -.939E+00 0.163E+01 0.268E+01   -.826E-07 0.143E-06 -.823E-05
   -.234E-06 0.135E-06 -.232E-10   0.355E-14 -.711E-14 -.568E-13   0.444E-15 0.222E-15 -.133E-14   -.242E-12 0.974E-13 0.631E-12

 POSITION                                       TOTAL-FORCE (eV/Angst)
      0.00000      0.00000     20.00000        -0.000000     -0.000000     -0.000000
      0.00000      4.04261     20.00000        -0.000000      0.000000     -0.000000
     -1.26053      5.90191     18.43853         0.000005      0.000008     -0.000009
     -0.97993      2.02130     18.43853        -0.000009     -0.000000     -0.000009
      0.97993      2.02130     21.56147         0.000009      0.000000      0.000009
      1.26053      5.90191     21.56147        -0.000005      0.000008      0.000009
     -2.24047      4.20461     21.56147        -0.000005     -0.000008      0.000009
      2.24047      4.20461     18.43853         0.000005     -0.000008     -0.000009
    total drift:                               -0.000000      0.000000     -0.000000

  FREE ENERGIE OF THE ION-ELECTRON SYSTEM (eV)
  free  energy   TOTEN  =       -31.49259657 eV

  energy  without entropy=      -31.49259657  energy(sigma->0) =      -31.49259657

 Quasi-Newton relaxation of ions (Broydens 2nd method)
  g(Force)  = 0.512E-10   g(Stress)= 0.000E+00

 Reset! Starting new Quasi-Newton update for ions

[...]

 eigenvalue-minimisations  :  1654
 total energy-change (2. order) :-0.2377419E-08  ( 0.1531374E-11)
 number of electron      53.9999988 magnetization       5.9999992
 augmentation part       -4.7231314 magnetization       4.3112798

[...]

 d Force = 0.4546066E-10[ 0.398E-10, 0.512E-10]  d Energy = 0.7846984E-07-0.784E-07
 d Force = 0.1253618E-02[ 0.125E-02, 0.125E-02]  d Ewald  = 0.1253618E-02-0.256E-09

[...]

 retain information from N=  1 steps
 eigenvalues of (default step * inverse Hessian matrix)
  average eigenvalue of G=   3.9314
 eigenvalue spectrum of G is  3.9314

[...]

 d Force = 0.2471668E-10[-0.863E-10, 0.136E-09]  d Energy =-0.7571998E-08 0.760E-08
 d Force = 0.4410474E-02[ 0.441E-02, 0.441E-02]  d Ewald  = 0.4410474E-02-0.473E-10

[...]

 eigenvalue-minimisations  :  1624
 total energy-change (2. order) : 0.7867129E-10  ( 0.1295383E-11)
 number of electron      53.9999988 magnetization       5.9999989
 augmentation part       -4.7231313 magnetization       4.3112813

[...]

 d Force = 0.1038795E-10[-0.137E-10, 0.344E-10]  d Energy = 0.8168627E-08-0.816E-08
 d Force =-0.1803606E-02[-0.180E-02,-0.180E-02]  d Ewald  =-0.1803606E-02 0.318E-09

[...]

 d Force = 0.2652929E-11[ 0.565E-12, 0.474E-11]  d Energy =-0.5302354E-09 0.533E-09
 d Force = 0.4174585E-03[ 0.417E-03, 0.417E-03]  d Ewald  = 0.4174587E-03-0.280E-09

[...]

 d Force = 0.6132714E-12[ 0.563E-12, 0.664E-12]  d Energy =-0.3269633E-09 0.328E-09
 d Force =-0.1014978E-03[-0.101E-03,-0.101E-03]  d Ewald  =-0.1014982E-03 0.344E-09

[...]

 d Force = 0.5940783E-12[ 0.560E-12, 0.628E-12]  d Energy =-0.2478373E-09 0.248E-09
 d Force =-0.4403341E-04[-0.440E-04,-0.440E-04]  d Ewald  =-0.4403359E-04 0.175E-09

[...]

 eigenvalue-minimisations  :  1312
 total energy-change (2. order) :-0.5038601E-09  (-0.1229278E-09)
 number of electron      53.9999988 magnetization       5.9999990
 augmentation part       -4.7231314 magnetization       4.3112819

[...]

 eigenvalue-minimisations  :  1606
 total energy-change (2. order) : 0.5384209E-09  (-0.8696720E-11)
 number of electron      53.9999988 magnetization       5.9999990
 augmentation part       -4.7231312 magnetization       4.3112820

[...]

 eigenvalue-minimisations  :  1408
 total energy-change (2. order) :-0.1678018E-09  ( 0.2052000E-11)
 number of electron      53.9999988 magnetization       5.9999989
 augmentation part       -4.7231312 magnetization       4.3112818

 Broyden mixing:
  rms(total) = 0.65712E-06    rms(broyden)= 0.65711E-06
  rms(prec ) = 0.65909E-06
  weight for this iteration     100.00

 eigenvalues of (default mixing * dielectric matrix)
  average eigenvalue GAMMA=   1.2259
  5.3078  4.0563  3.0143  2.4515  2.3461  2.3461  2.0810  2.0810  1.6676  1.6676
  0.0155  1.0003  1.0003  1.1162  1.1162  0.1449  0.2839  0.2839  0.6806  0.6806
  1.0046  0.9596  0.7590  0.7590  0.8002  0.4516  0.4516  0.7150  0.7150  0.5059
  0.6245  0.6245  0.5803  0.5803  0.6441  0.6163

[...]

--------------------------------------- Iteration      8(   6)  ---------------------------------------

[...]

 eigenvalue-minimisations  :  1390
 total energy-change (2. order) : 0.6821210E-11  ( 0.1866327E-11)
 number of electron      53.9999988 magnetization       5.9999989
 augmentation part       -4.7231312 magnetization       4.3112818

 Free energy of the ion-electron system (eV)
  alpha Z        PSCENC =         8.00746852
  Ewald energy   TEWEN  =     13715.62624441
  -Hartree energ DENC   =    -15827.62712378
  -exchange      EXHF   =         0.00000000
  -V(xc)+E(xc)   XCENC  =      -114.53937062
  PAW double counting   =      3091.68556654    -2895.67238513
  entropy T*S    EENTRO =         0.00000000
  eigenvalues    EBANDS =      -457.90397761
  atomic energy  EATOM  =      2448.93098101
  Solvation  Ediel_sol  =         0.00000000
  free energy    TOTEN  =       -31.49259665 eV

  energy without entropy =      -31.49259665  energy(sigma->0) =      -31.49259665

 average (electrostatic) potential at core
  the test charge radii are     1.1394  1.1875
  (the norm of the test charge is              1.0000)
       1 -52.7307       2 -52.7307       3 -99.6352       4 -99.6352       5 -99.6352
       6 -99.6352       7 -99.6352       8 -99.6352

 E-fermi :  -4.2968     XC(G=0):  -1.6357     alpha+bet : -1.4754

[...]

 spin component 2

[...]

 k-point    16 :       0.3636    0.2727    0.0000
  band No.  band energies     occupation
      1     -16.6286      1.00000
      2     -16.5482      1.00000
      3     -16.2553      1.00000
      4     -16.1261      1.00000
      5     -16.0958      1.00000
      6     -16.0093      1.00000
      7      -8.0919      1.00000
      8      -7.9339      1.00000
      9      -7.5360      1.00000
     10      -7.4154      1.00000
     11      -7.3859      1.00000
     12      -6.9926      1.00000
     13      -6.9128      1.00000
     14      -6.8023      1.00000
     15      -6.3442      1.00000
     16      -6.1331      1.00000
     17      -5.8523      1.00000
     18      -5.7017      1.00000
     19      -5.6139      1.00000
     20      -5.3798      1.00000
     21      -5.2883      1.00000
     22      -5.2672      1.00000
     23      -4.9914      1.00000
     24      -4.9549      1.00000
     25      -2.3651      0.00000
     26      -2.3377      0.00000
     27      -2.1999      0.00000
     28      -2.1665      0.00000
     29      -1.9829      0.00000
     30      -1.9758      0.00000
     31      -1.6173      0.00000
     32      -1.5542      0.00000
     33      -1.5390      0.00000
     34      -1.4157      0.00000
     35       0.9455      0.00000
     36       1.0574      0.00000
     37       1.5125      0.00000
     38       1.7789      0.00000

[...]

 soft charge-density along one line, spin component           2
         0         1         2         3         4         5         6         7         8         9
 total charge-density along one line

------------------------ aborting loop because EDIFF is reached ----------------------------------------

[...]

  FORCE on cell =-STRESS in cart. coord.  units (eV):
  Direction    XX          YY          ZZ          XY          YZ          ZX
  Alpha Z     8.00747     8.00747     8.00747
  Ewald   15162.50670 15162.50670-16609.38828     0.00000     0.00000    -0.00000
  Hartree 15568.19739 15568.19739-15308.76765    -0.00000     0.00000     0.00000
  E(xc)    -215.62143  -215.62142  -216.08830     0.00000    -0.00000    -0.00000
  Local  -31721.21849-31721.21869 30926.38969    -0.00017     0.00000     0.00000
  n-local   817.02894   817.36792   817.48849    -0.74969    -0.50439     0.12709
  augment  -160.21890  -160.21870  -160.70159     0.00017     0.00000     0.00000
  Kinetic   541.51140   540.64038   542.99653     1.31610    -0.34556     0.01418
  Fock        0.00000     0.00000     0.00000     0.00000     0.00000     0.00000
  Total      -0.07293    -0.07293    -0.06364     0.00000     0.00000    -0.00000
  in kB      -0.06880    -0.06880    -0.06004     0.00000     0.00000    -0.00000

 VOLUME and BASIS-vectors are now :
  energy-cutoff  :      300.00
  volume of cell :     1698.38
      direct lattice vectors                 reciprocal lattice vectors
     7.002000000  0.000000000  0.000000000     0.142816338  0.082455051  0.000000000
    -3.501000000  6.063909877  0.000000000     0.000000000  0.164910103  0.000000000
     0.000000000  0.000000000 40.000000000     0.000000000  0.000000000  0.025000000

  length of vectors
     7.002000000  7.002000000 40.000000000     0.164910103  0.164910103  0.025000000

 FORCES acting on ions
    electron-ion (+dipol)            ewald-force                    non-local-force                 convergence-correction
   0.449E-06 -.259E-06 0.933E-11   0.180E-11 -.111E-11 -.341E-12   -.660E-18 0.643E-18 0.106E-21   0.329E-11 -.213E-11 -.978E-12
   -.859E-06 0.496E-06 -.415E-11   -.747E-11 0.443E-11 -.341E-12   0.114E-17 -.114E-17 -.106E-21   -.379E-11 0.283E-11 -.127E-11
   -.263E+02 -.455E+02 0.404E+03   0.272E+02 0.472E+02 -.406E+03   -.939E+00 -.163E+01 0.268E+01   0.144E-05 0.249E-05 0.726E-07
   0.526E+02 -.468E-05 0.404E+03   -.545E+02 -.971E-11 -.406E+03   0.188E+01 -.619E-18 0.268E+01   -.288E-05 0.267E-09 0.726E-07
   -.526E+02 -.639E-05 -.404E+03   0.545E+02 -.146E-10 0.406E+03   -.188E+01 -.507E-18 -.268E+01   0.288E-05 -.271E-09 -.726E-07
   0.263E+02 -.455E+02 -.404E+03   -.272E+02 0.472E+02 0.406E+03   0.939E+00 -.163E+01 -.268E+01   -.144E-05 0.249E-05 -.726E-07
   0.263E+02 0.455E+02 -.404E+03   -.272E+02 -.472E+02 0.406E+03   0.939E+00 0.163E+01 -.268E+01   -.144E-05 -.249E-05 -.726E-07
   -.263E+02 0.455E+02 0.404E+03   0.272E+02 -.472E+02 -.406E+03   -.939E+00 0.163E+01 0.268E+01   0.144E-05 -.249E-05 0.726E-07
   -.234E-06 0.135E-06 -.224E-10   -.711E-14 0.000E+00 -.568E-13   0.000E+00 0.222E-15 0.444E-15   -.494E-12 0.735E-12 -.107E-10

 POSITION                                       TOTAL-FORCE (eV/Angst)
     -0.00000     -0.00000     20.00000         0.000000     -0.000000     -0.000000
      0.00000      4.04261     20.00000         0.000000     -0.000000      0.000000
     -1.26053      5.90191     18.43853        -0.000000     -0.000001      0.000000
     -0.97994      2.02130     18.43853         0.000001     -0.000000      0.000000
      0.97994      2.02130     21.56147        -0.000001      0.000000     -0.000000
      1.26053      5.90191     21.56147         0.000000     -0.000001     -0.000000
     -2.24047      4.20461     21.56147         0.000000      0.000001     -0.000000
      2.24047      4.20461     18.43853        -0.000000      0.000001      0.000000
    total drift:                               -0.000000      0.000000     -0.000000

  FREE ENERGIE OF THE ION-ELECTRON SYSTEM (eV)
  free  energy   TOTEN  =       -31.49259665 eV

  energy  without entropy=      -31.49259665  energy(sigma->0) =      -31.49259665

 d Force = 0.1216207E-11[-0.139E-11, 0.383E-11]  d Energy = 0.2291927E-09-0.228E-09
 d Force =-0.3603908E-03[-0.360E-03,-0.360E-03]  d Ewald  =-0.3603902E-03-0.569E-09

 Quasi-Newton relaxation of ions (Broydens 2nd method)
  g(Force)  = 0.110E-12   g(Stress)= 0.000E+00

 retain information from N=  1 steps
 eigenvalues of (default step * inverse Hessian matrix)
  average eigenvalue of G=   5.8670
 eigenvalue spectrum of G is  5.8670

 reached required accuracy - stopping structural energy minimisation
 writing wavefunctions

 total charge

[...]

 magnetization (x)

# of ion       s       p       d       tot
    1        0.039   0.045   3.016   3.100
    2        0.039   0.045   3.016   3.100
    3       -0.002  -0.081   0.005  -0.077
    4       -0.002  -0.081   0.005  -0.078
    5       -0.002  -0.081   0.005  -0.078
    6       -0.002  -0.081   0.005  -0.078
    7       -0.002  -0.081   0.005  -0.077
    8       -0.002  -0.081   0.005  -0.078
tot          0.067  -0.397   6.062   5.732

 BZINTS: Fermi energy: -4.296831; 54.000000 electrons
         Band energy:-457.903978;  BLOECHL correction:  0.000000