 vasp.5.4.4.18Apr17-6-g9f103f2a35 (build Apr 25 2017 18:29:20) complex

 executed on      IFC91_ompi_syO2 date 2018.05.07  14:57:11

 INCAR:
 POTCAR:    PAW_PBE Cr 06Sep2000
 POTCAR:    PAW_PBE I 08Apr2002

 POTCAR:    PAW_PBE Cr 06Sep2000
   VRHFIN =Cr : d5 s1

   TITEL  = PAW_PBE Cr 06Sep2000
   POMASS =   51.996; ZVAL   =    6.000    mass and valenz
   ENMAX  =  227.080; ENMIN  =  170.310 eV

 POTCAR:    PAW_PBE I 08Apr2002
   VRHFIN =I : s2p5

   TITEL  = PAW_PBE I 08Apr2002
   POMASS =  126.904; ZVAL   =    7.000    mass and valenz
   ENMAX  =  175.647; ENMIN  =  131.735 eV

  PAW_PBE Cr 06Sep2000                  :
  PAW_PBE I 08Apr2002                   :

 POSCAR: POSCAR
  positions in direct lattice
  velocities in cartesian coordinates
 exchange correlation table for  LEXCH =        8
   RHO(1)=    0.500       N(1)  =     2000
   RHO(2)=  100.500       N(2)  =     4000

 ion  position               nearest neighbor table
   1  0.000  0.000  0.500-   3 2.74   4 2.74   5 2.74   6 2.74   7 2.74   8 2.74
   2  0.333  0.667  0.500-   5 2.74   8 2.74   6 2.74   4 2.74   7 2.74   3 2.74
   3  0.307  0.973  0.461-   1 2.74   2 2.74
   4  0.027  0.333  0.461-   2 2.74   1 2.74
   5  0.307  0.333  0.539-   2 2.74   1 2.74
   6  0.667  0.973  0.539-   2 2.74   1 2.74
   7  0.027  0.693  0.539-   1 2.74   2 2.74
   8  0.667  0.693  0.461-   2 2.74   1 2.74

  LATTYP: Found a hexagonal cell.
 ALAT       =     7.0000000000
 C/A-ratio  =     5.7142857143

  Lattice vectors:

 A1 = (   7.0000000000,   0.0000000000,   0.0000000000)
 A2 = (  -3.5000000000,   6.0621778265,   0.0000000000)
 A3 = (   0.0000000000,   0.0000000000,  40.0000000000)

Analysis of symmetry for initial positions (statically):
 Subroutine PRICEL returns:
 Original cell was already a primitive cell.

 Routine SETGRP: Setting up the symmetry group for a
 hexagonal supercell.

 Subroutine GETGRP returns: Found 12 space group operations
 (whereof  6 operations were pure point group operations)
 out of a pool of 24 trial point group operations.

The static configuration has the point symmetry D_3 .
 The point group associated with its full space group is D_3d.

Analysis of symmetry for dynamics (positions and initial velocities):
 Subroutine PRICEL returns:
 Original cell was already a primitive cell.

[...]

The dynamic configuration has the point symmetry D_3 .
 The point group associated with its full space group is D_3d.

Analysis of structural, dynamic, and magnetic symmetry:
 Subroutine PRICEL returns:
 Original cell was already a primitive cell.

 Routine SETGRP: Setting up the symmetry group for a
 hexagonal supercell.

 Subroutine GETGRP returns: Found 12 space group operations
 (whereof  6 operations were pure point group operations)
 out of a pool of 24 trial point group operations.

The magnetic configuration has the point symmetry D_3 .
 The point group associated with its full space group is D_3d.

 Subroutine INISYM returns: Found 12 space group operations
 (whereof  6 operations are pure point group operations),
 and found     1 'primitive' translations

 KPOINTS: K-Points   # First line comment

Automatic generation of k-mesh.
Space group operators:
 irot       det(A)        alpha          n_x          n_y          n_z        tau_x        tau_y        tau_z
    1     1.000000     0.000000     1.000000     0.000000     0.000000     0.000000     0.000000     0.000000
    2     1.000000   120.000000     0.000000     0.000000    -1.000000     0.000000     0.000000     0.000000
    3     1.000000   120.000000     0.000000     0.000000     1.000000     0.000000     0.000000     0.000000
    4     1.000000   180.000000     0.866025    -0.500000     0.000000     0.000000     0.000000     0.000000
    5     1.000000   179.999999     0.000000     1.000000     0.000000     0.000000     0.000000     0.000000
    6     1.000000   180.000000     0.866025     0.500000     0.000000     0.000000     0.000000     0.000000
    7    -1.000000     0.000000     1.000000     0.000000     0.000000     0.333333     0.666667     0.000000
    8    -1.000000   120.000000     0.000000     0.000000    -1.000000     0.333333     0.666667     0.000000
    9    -1.000000   120.000000     0.000000     0.000000     1.000000     0.333333     0.666667     0.000000
   10    -1.000000   180.000000     0.866025    -0.500000     0.000000     0.333333     0.666667     0.000000
   11    -1.000000   179.999999     0.000000     1.000000     0.000000     0.333333     0.666667     0.000000
   12    -1.000000   180.000000     0.866025     0.500000     0.000000     0.333333     0.666667     0.000000

 Subroutine IBZKPT returns following result:

 Found     16 irreducible k-points:

 Following reciprocal coordinates:
            Coordinates               Weight
  0.000000  0.000000  0.000000      1.000000
  0.090909  0.000000  0.000000      6.000000
  0.181818  0.000000  0.000000      6.000000
  0.272727 -0.000000  0.000000      6.000000
  0.363636  0.000000  0.000000      6.000000
  0.454545  0.000000  0.000000      6.000000
  0.090909  0.090909  0.000000      6.000000
  0.181818  0.090909  0.000000     12.000000
  0.272727  0.090909  0.000000     12.000000
  0.363636  0.090909  0.000000     12.000000
  0.454545  0.090909  0.000000      6.000000
  0.181818  0.181818  0.000000      6.000000
  0.272727  0.181818  0.000000     12.000000
  0.363636  0.181818  0.000000     12.000000
  0.272727  0.272727  0.000000      6.000000
  0.363636  0.272727  0.000000      6.000000

 Following cartesian coordinates:
            Coordinates               Weight
  0.000000  0.000000  0.000000      1.000000
  0.012987  0.007498  0.000000      6.000000
  0.025974  0.014996  0.000000      6.000000
  0.038961  0.022494  0.000000      6.000000
  0.051948  0.029992  0.000000      6.000000
  0.064935  0.037490  0.000000      6.000000
  0.012987  0.022494  0.000000      6.000000
  0.025974  0.029992  0.000000     12.000000
  0.038961  0.037490  0.000000     12.000000
  0.051948  0.044988  0.000000     12.000000
  0.064935  0.052486  0.000000      6.000000
  0.025974  0.044988  0.000000      6.000000
  0.038961  0.052486  0.000000     12.000000
  0.051948  0.059984  0.000000     12.000000
  0.038961  0.067482  0.000000      6.000000
  0.051948  0.074981  0.000000      6.000000

 TETIRR: Found     66 inequivalent tetrahedra from      726

 SYSTEM =  monolayer-CrI3
 POSCAR =  POSCAR

 Startparameter for this run:
   NWRITE =      2    write-flag & timer
   PREC   = accura    normal or accurate (medium, high low for compatibility)
   ISTART =      0    job   : 0-new  1-cont  2-samecut
   ICHARG =      2    charge: 1-file 2-atom 10-const
   ISPIN  =      2    spin polarized calculation?
   LNONCOLLINEAR =      F non collinear calculations
   LSORBIT =      F    spin-orbit coupling
   INIWAV =      1    electr: 0-lowe 1-rand  2-diag
   LASPH  =      F    aspherical Exc in radial PAW
   METAGGA=      F    non-selfconsistent MetaGGA calc.

 Electronic Relaxation 1
   ENCUT  =  450.0 eV  33.07 Ry    5.75 a.u.  12.11 12.11 69.19*2*pi/ulx,y,z
   ENINI  =  450.0     initial cutoff
   ENAUG  =  402.1 eV  augmentation charge cutoff
   NELM   =     60;   NELMIN=  2; NELMDL= -5     # of ELM steps
   EDIFF  = 0.1E-06   stopping-criterion for ELM
   LREAL  =      F    real-space projection
   NLSPLINE    = F    spline interpolate recip. space projectors
   LCOMPAT=      F    compatible to vasp.4.4
   GGA_COMPAT  = T    GGA compatible to vasp.4.4-vasp.4.6
   LMAXPAW     = -100 max onsite density
   LMAXMIX     =    2 max onsite mixed and CHGCAR
   VOSKOWN=      0    Vosko Wilk Nusair interpolation
   ROPT   =    0.00000   0.00000
 Ionic relaxation
   EDIFFG = -.1E-05   stopping-criterion for IOM
   NSW    =    100    number of steps for IOM
   NBLOCK =      1;   KBLOCK =    100    inner block; outer block
   IBRION =      1    ionic relax: 0-MD 1-quasi-New 2-CG
   NFREE  =      0    steps in history (QN), initial steepest desc. (CG)
   ISIF   =      2    stress and relaxation
   IWAVPR =     11    prediction:  0-non 1-charg 2-wave 3-comb
   ISYM   =      2    0-nonsym 1-usesym 2-fastsym
   LCORR  =      T    Harris-Foulkes like correction to forces

   POTIM  = 0.5000    time-step for ionic-motion
   TEIN   =    0.0    initial temperature
   TEBEG  =    0.0;   TEEND  =   0.0 temperature during run
   SMASS  =  -3.00    Nose mass-parameter (am)
   estimated Nose-frequenzy (Omega)   =  0.10E-29 period in steps =****** mass=  -0.112E-26a.u.
   SCALEE = 1.0000    scale energy and forces
   NPACO  =    256;   APACO  = 16.0  distance and # of slots for P.C.
   PSTRESS=    0.0 pullay stress

  Mass of Ions in am
   POMASS =  52.00126.90
  Ionic Valenz
   ZVAL   =   6.00  7.00
  Atomic Wigner-Seitz radii
  virtual crystal weights
   VCA    =   1.00  1.00
   NELECT =      54.0000    total number of electrons
   NUPDOWN=      -1.0000    fix difference up-down

 DOS related values:
   EMIN   =  10.00;   EMAX   =-10.00  energy-range for DOS
   EFERMI =   0.00
   ISMEAR =    -5;   SIGMA  =   0.05  broadening in eV -4-tet -1-fermi 0-gaus

 Electronic relaxation 2 (details)
   IALGO  =     38    algorithm
   LDIAG  =      T    sub-space diagonalisation (order eigenvalues)
   LSUBROT=      F    optimize rotation matrix (better conditioning)
   TURBO    =      0    0=normal 1=particle mesh
   IRESTART =      0    0=no restart 2=restart with 2 vectors
   NREBOOT  =      0    no. of reboots
   NMIN     =      0    reboot dimension
   EREF     =   0.00    reference energy to select bands
   IMIX   =      4    mixing-type and parameters
     AMIX     =   0.40;   BMIX     =  1.00
     AMIX_MAG =   1.60;   BMIX_MAG =  1.00
     AMIN     =   0.10
     WC   =   100.;   INIMIX=   1;  MIXPRE=   1;  MAXMIX=  40

 Intra band minimization:
   WEIMIN = 0.0010     energy-eigenvalue tresh-hold
   EBREAK =  0.66E-09  absolut break condition
   DEPER  =   0.30     relativ break condition

   TIME   =   0.40     timestep for ELM

  volume/ion in A,a.u.               =     212.18      1431.84
  Fermi-wavevector in a.u.,A,eV,Ry     =   0.518733  0.980263  3.661109  0.269084
  Thomas-Fermi vector in A             =   1.535769

 Write flags
   LWAVE        =      F    write WAVECAR
   LDOWNSAMPLE  =      F    k-point downsampling of WAVECAR
   LCHARG       =      F    write CHGCAR
   LVTOT        =      F    write LOCPOT, total local potential
   LVHAR        =      F    write LOCPOT, Hartree potential only
   LELF         =      F    write electronic localiz. function (ELF)
   LORBIT       =     11    0 simple, 1 ext, 2 COOP (PROOUT), +10 PAW based schemes

 Dipole corrections
   LMONO  =      F    monopole corrections only (constant potential shift)
   LDIPOL =      F    correct potential (dipole corrections)
   IDIPOL =      0    1-x, 2-y, 3-z, 4-all directions
   EPSILON=  1.0000000 bulk dielectric constant

 Exchange correlation treatment:
   GGA     =    PE    GGA type
   VOSKOWN=      0    Vosko Wilk Nusair interpolation
   LHFCALC =     F    Hartree Fock is set to
   LHFONE  =     F    Hartree Fock one center treatment
   AEXX    =    0.0000 exact exchange contribution

 Linear response parameters
[...]
  Total       0.00986     0.00986    -0.00558     0.00000     0.00000     0.00000
  in kB       0.00930     0.00930    -0.00527     0.00000     0.00000     0.00000

 VOLUME and BASIS-vectors are now :
  energy-cutoff  :      450.00
  volume of cell :     1697.41
      direct lattice vectors                 reciprocal lattice vectors
     7.000000000  0.000000000  0.000000000     0.142857143  0.082478610  0.000000000
    -3.500000000  6.062177826  0.000000000     0.000000000  0.164957220  0.000000000
     0.000000000  0.000000000 40.000000000     0.000000000  0.000000000  0.025000000

[...]

 FORCES acting on ions
    electron-ion (+dipol)            ewald-force                    non-local-force                 convergence-correction
   0.193E-06 -.112E-06 0.107E-11   -.108E-11 0.696E-12 -.142E-13   0.171E-17 -.953E-18 0.741E-21   -.164E-12 0.919E-13 -.459E-12
   -.193E-06 0.112E-06 -.407E-11   -.103E-10 0.586E-11 -.284E-13   -.198E-17 0.104E-17 -.847E-21   0.147E-12 -.706E-13 -.451E-12
   -.263E+02 -.455E+02 0.404E+03   0.272E+02 0.472E+02 -.407E+03   -.939E+00 -.163E+01 0.268E+01   -.802E-07 -.139E-06 -.688E-05
   0.526E+02 0.275E-06 0.404E+03   -.545E+02 -.529E-11 -.407E+03   0.188E+01 0.180E-18 0.268E+01   0.160E-06 0.328E-11 -.688E-05
   -.526E+02 -.275E-06 -.404E+03   0.545E+02 -.104E-10 0.407E+03   -.188E+01 -.430E-18 -.268E+01   -.160E-06 -.330E-11 0.688E-05
   0.263E+02 -.455E+02 -.404E+03   -.272E+02 0.472E+02 0.407E+03   0.939E+00 -.163E+01 -.268E+01   0.802E-07 -.139E-06 0.688E-05
   0.263E+02 0.455E+02 -.404E+03   -.272E+02 -.472E+02 0.407E+03   0.939E+00 0.163E+01 -.268E+01   0.802E-07 0.139E-06 0.688E-05
   -.263E+02 0.455E+02 0.404E+03   0.272E+02 -.472E+02 -.407E+03   -.939E+00 0.163E+01 0.268E+01   -.802E-07 0.139E-06 -.688E-05
   -.239E-11 -.891E-10 -.520E-10   0.178E-13 0.142E-13 -.568E-13   -.666E-15 -.222E-15 0.000E+00   -.190E-13 0.287E-13 -.399E-11

 POSITION                                       TOTAL-FORCE (eV/Angst)
      0.00000      0.00000     20.00000         0.000000     -0.000000      0.000000
      0.00000      4.04145     20.00000        -0.000000     -0.000000      0.000000
     -1.26003      5.90047     18.43836        -0.000080     -0.000138     -0.000195
     -0.97994      2.02073     18.43836         0.000160     -0.000000     -0.000195
      0.97994      2.02073     21.56164        -0.000160     -0.000000      0.000195
      1.26003      5.90047     21.56164         0.000080     -0.000138      0.000195
     -2.23997      4.20316     21.56164         0.000080      0.000138      0.000195
      2.23997      4.20316     18.43836        -0.000080      0.000138     -0.000195
    total drift:                               -0.000000     -0.000000     -0.000000

  FREE ENERGIE OF THE ION-ELECTRON SYSTEM (eV)
  free  energy   TOTEN  =       -31.48881238 eV

  energy  without entropy=      -31.48881238  energy(sigma->0) =      -31.48881238

 Quasi-Newton relaxation of ions (Broydens 2nd method)
  g(Force)  = 0.184E-07   g(Stress)= 0.000E+00

 Reset! Starting new Quasi-Newton update for ions

[...]

 d Force = 0.1691086E-07[ 0.154E-07, 0.184E-07]  d Energy = 0.6774098E-07-0.508E-07
 d Force = 0.2044968E-01[ 0.204E-01, 0.204E-01]  d Ewald  = 0.2044968E-01 0.278E-09

[...]

 retain information from N=  1 steps
 eigenvalues of (default step * inverse Hessian matrix)
  average eigenvalue of G=  10.4025
 eigenvalue spectrum of G is 10.4025

[...]

 d Force = 0.4672124E-07[ 0.248E-07, 0.686E-07]  d Energy =-0.2022689E-06 0.249E-06
 d Force = 0.8312468E-01[ 0.831E-01, 0.831E-01]  d Ewald  = 0.8312468E-01 0.218E-10

[...]

 d Force = 0.1702361E-08[-0.304E-08, 0.644E-08]  d Energy = 0.2891011E-07-0.272E-07
 d Force = 0.1090283E-01[ 0.109E-01, 0.109E-01]  d Ewald  = 0.1090283E-01-0.364E-11

[...]

 eigenvalues of (default mixing * dielectric matrix)
  average eigenvalue GAMMA=   1.7700
 10.5746  8.3356  5.5743  4.2807  3.6400  2.5981  2.5981  2.2223  2.1199  1.7337
  1.7337  1.7066  1.1761  1.1761  1.2188  0.2104  0.8667  0.8667  0.9676  0.9348
  0.9348  0.4023  0.4876  0.8077  0.7846  0.7328  0.6932  0.6932  0.5397  0.5717
  0.5717  0.6529  0.6529  0.6345  0.5872  0.6085  0.6005

[...]

 d Force =-0.6520943E-09[-0.263E-08, 0.133E-08]  d Energy =-0.6364644E-08 0.571E-08
 d Force =-0.7671800E-02[-0.767E-02,-0.767E-02]  d Ewald  =-0.7671799E-02-0.100E-09

[...]

 d Force = 0.3951880E-09[-0.102E-07, 0.110E-07]  d Energy =-0.5716174E-08 0.611E-08
 d Force = 0.1206040E-01[ 0.121E-01, 0.121E-01]  d Ewald  = 0.1206040E-01 0.173E-09

[...]

 d Force = 0.8319315E-10[-0.137E-08, 0.153E-08]  d Energy = 0.1235949E-06-0.124E-06
 d Force =-0.1489823E-02[-0.149E-02,-0.149E-02]  d Ewald  =-0.1489823E-02 0.764E-10

[...]

 d Force = 0.3283624E-11[-0.225E-10, 0.290E-10]  d Energy =-0.7005656E-07 0.701E-07
 d Force =-0.7528304E-04[-0.753E-04,-0.753E-04]  d Ewald  =-0.7528322E-04 0.176E-09

[...]

 eigenvalue-minimisations  :  1714
 total energy-change (2. order) : 0.1963053E-07  ( 0.7278967E-11)
 number of electron      54.0000002 magnetization       5.9999782
 augmentation part       -4.7233804 magnetization       4.3096642

[...]

 d Force = 0.9104731E-11[ 0.652E-11, 0.117E-10]  d Energy =-0.2084516E-07 0.209E-07
 d Force =-0.2559760E-03[-0.256E-03,-0.256E-03]  d Ewald  =-0.2559763E-03 0.329E-09

[...]

 eigenvalue-minimisations  :  1630
 total energy-change (2. order) :-0.1264289E-07  ( 0.7800350E-11)
 number of electron      54.0000002 magnetization       5.9999807
 augmentation part       -4.7233797 magnetization       4.3096669

[...]

 d Force = 0.1937344E-10[ 0.453E-11, 0.342E-10]  d Energy = 0.7544804E-07-0.754E-07
 d Force =-0.3650522E-03[-0.365E-03,-0.365E-03]  d Ewald  =-0.3650528E-03 0.540E-09

[...]

 d Force =-0.1718619E-10[-0.829E-10, 0.486E-10]  d Energy =-0.7233666E-08 0.722E-08
 d Force =-0.6854991E-03[-0.685E-03,-0.685E-03]  d Ewald  =-0.6854998E-03 0.717E-09

[...]

 d Force =-0.2598427E-10[-0.104E-09, 0.520E-10]  d Energy = 0.8053576E-08-0.808E-08
 d Force = 0.5783027E-03[ 0.578E-03, 0.578E-03]  d Ewald  = 0.5783033E-03-0.648E-09

[...]

 d Force =-0.3842979E-12[-0.573E-11, 0.496E-11]  d Energy = 0.1477019E-08-0.148E-08
 d Force = 0.2039913E-03[ 0.204E-03, 0.204E-03]  d Ewald  = 0.2039911E-03 0.236E-09

[...]

 d Force =-0.8711516E-12[-0.120E-11,-0.541E-12]  d Energy = 0.4383764E-09-0.439E-09
 d Force =-0.5473552E-04[-0.547E-04,-0.547E-04]  d Ewald  =-0.5473540E-04-0.118E-09

[...]

 d Force =-0.8755962E-11[-0.100E-10,-0.750E-11]  d Energy = 0.4652065E-09-0.474E-09
 d Force =-0.2101073E-03[-0.210E-03,-0.210E-03]  d Ewald  =-0.2101071E-03-0.258E-09

[...]

 d Force =-0.3989938E-11[-0.122E-10, 0.426E-11]  d Energy = 0.4833964E-09-0.487E-09
 d Force =-0.4109796E-03[-0.411E-03,-0.411E-03]  d Ewald  =-0.4109796E-03 0.455E-10

[...]

 d Force = 0.4924165E-12[ 0.502E-12, 0.483E-12]  d Energy = 0.1637090E-09-0.163E-09
 d Force = 0.3671879E-04[ 0.367E-04, 0.367E-04]  d Ewald  = 0.3671881E-04-0.182E-10

[...]

 d Force =-0.2417165E-11[-0.284E-11,-0.199E-11]  d Energy =-0.4015419E-09 0.399E-09
 d Force = 0.5662359E-04[ 0.566E-04, 0.566E-04]  d Ewald  = 0.5662354E-04 0.528E-10

[...]

 eigenvalue-minimisations  :  1324
 total energy-change (2. order) :-0.2055458E-09  (-0.7503772E-10)
 number of electron      54.0000002 magnetization       6.0000004
 augmentation part       -4.7233795 magnetization       4.3096853

[...]

 d Force = 0.5918286E-11[-0.380E-11, 0.156E-10]  d Energy = 0.9194991E-09-0.914E-09
 d Force =-0.2335197E-03[-0.234E-03,-0.234E-03]  d Ewald  =-0.2335195E-03-0.160E-09

[...]

 d Force =-0.9939655E-14[-0.314E-11, 0.312E-11]  d Energy =-0.6825758E-09 0.683E-09
 d Force = 0.3747746E-03[ 0.375E-03, 0.375E-03]  d Ewald  = 0.3747744E-03 0.258E-09

[...]

 d Force = 0.1802508E-11[ 0.585E-12, 0.302E-11]  d Energy = 0.8913048E-09-0.890E-09
 d Force =-0.7147481E-04[-0.715E-04,-0.715E-04]  d Ewald  =-0.7147435E-04-0.466E-09

[...]

 eigenvalue-minimisations  :  1486
 total energy-change (2. order) : 0.1086846E-09  ( 0.1287688E-10)
 number of electron      54.0000002 magnetization       6.0000002
 augmentation part       -4.7233798 magnetization       4.3096851

[...]

 d Force = 0.2053011E-11[ 0.164E-11, 0.247E-11]  d Energy =-0.2637535E-10 0.284E-10
 d Force = 0.1912043E-03[ 0.191E-03, 0.191E-03]  d Ewald  = 0.1912042E-03 0.819E-10

[...]

 eigenvalue-minimisations  :  1390
 total energy-change (2. order) : 0.1805347E-09  (-0.2108940E-10)
 number of electron      54.0000002 magnetization       6.0000001
 augmentation part       -4.7233797 magnetization       4.3096850

 Broyden mixing:
  rms(total) = 0.31329E-06    rms(broyden)= 0.31323E-06
  rms(prec ) = 0.31890E-06
  weight for this iteration     100.00

[...]

--------------------------------------- Iteration     42(   2)  ---------------------------------------

[...]

 eigenvalue-minimisations  :  1516
 total energy-change (2. order) :-0.4456524E-10  ( 0.1050708E-10)
 number of electron      54.0000002 magnetization       6.0000001
 augmentation part       -4.7233797 magnetization       4.3096850

 Free energy of the ion-electron system (eV)
  alpha Z        PSCENC =         8.01204487
  Ewald energy   TEWEN  =     13723.65337762
  -Hartree energ DENC   =    -15835.76670321
  -exchange      EXHF   =         0.00000000
  -V(xc)+E(xc)   XCENC  =      -114.52328194
  PAW double counting   =      3093.92359994    -2897.88110370
  entropy T*S    EENTRO =         0.00000000
  eigenvalues    EBANDS =      -457.87602273
  atomic energy  EATOM  =      2448.96927661
  Solvation  Ediel_sol  =         0.00000000
  free energy    TOTEN  =       -31.48881254 eV

  energy without entropy =      -31.48881254  energy(sigma->0) =      -31.48881254

 average (electrostatic) potential at core
  the test charge radii are     1.1394  1.1875
  (the norm of the test charge is              1.0000)
       1 -52.7304       2 -52.7304       3 -99.6389       4 -99.6389       5 -99.6389
       6 -99.6389       7 -99.6389       8 -99.6389

 E-fermi :  -4.2959     XC(G=0):  -1.6325     alpha+bet : -1.4762

[...]

 spin component 2

[...]

 k-point    16 :       0.3636    0.2727    0.0000
  band No.  band energies     occupation
      1     -16.6282      1.00000
      2     -16.5477      1.00000
      3     -16.2547      1.00000
      4     -16.1260      1.00000
      5     -16.0956      1.00000
      6     -16.0089      1.00000
      7      -8.0910      1.00000
      8      -7.9327      1.00000
      9      -7.5359      1.00000
     10      -7.4151      1.00000
     11      -7.3857      1.00000
     12      -6.9925      1.00000
     13      -6.9127      1.00000
     14      -6.8022      1.00000
     15      -6.3431      1.00000
     16      -6.1339      1.00000
     17      -5.8500      1.00000
     18      -5.7015      1.00000
     19      -5.6136      1.00000
     20      -5.3784      1.00000
     21      -5.2867      1.00000
     22      -5.2671      1.00000
     23      -4.9900      1.00000
     24      -4.9534      1.00000
     25      -2.3648      0.00000
     26      -2.3375      0.00000
     27      -2.1991      0.00000
     28      -2.1665      0.00000
     29      -1.9822      0.00000
     30      -1.9751      0.00000
     31      -1.6174      0.00000
     32      -1.5542      0.00000
     33      -1.5390      0.00000
     34      -1.4159      0.00000
     35       0.9486      0.00000
     36       1.0605      0.00000
     37       1.5137      0.00000
     38       1.7814      0.00000

[...]

 soft charge-density along one line, spin component           2
         0         1         2         3         4         5         6         7         8         9
 total charge-density along one line

------------------------ aborting loop because EDIFF is reached ----------------------------------------

[...]

  FORCE on cell =-STRESS in cart. coord.  units (eV):
  Direction    XX          YY          ZZ          XY          YZ          ZX
  Alpha Z     8.01204     8.01204     8.01204
  Ewald   15170.86585 15170.86585-16618.07948    -0.00000     0.00000     0.00000
  Hartree 15576.48026 15576.48026-15317.19382    -0.00000     0.00000     0.00000
  E(xc)    -215.64874  -215.64874  -216.11636    -0.00000    -0.00000    -0.00000
  Local  -31737.69674-31737.69681 30943.68492    -0.00007     0.00000     0.00000
  n-local   816.90261   817.24110   817.36527    -0.74856    -0.50685     0.12777
  augment  -160.27091  -160.27084  -160.75470     0.00007     0.00000    -0.00000
  Kinetic   541.63384   540.75953   543.07470     1.32213    -0.34681     0.01427
  Fock        0.00000     0.00000     0.00000     0.00000     0.00000     0.00000
  Total       0.01030     0.01030    -0.00742     0.00000     0.00000    -0.00000
  in kB       0.00973     0.00973    -0.00701     0.00000     0.00000    -0.00000

 VOLUME and BASIS-vectors are now :
  energy-cutoff  :      450.00
  volume of cell :     1697.41
      direct lattice vectors                 reciprocal lattice vectors
     7.000000000  0.000000000  0.000000000     0.142857143  0.082478610  0.000000000
    -3.500000000  6.062177826  0.000000000     0.000000000  0.164957220  0.000000000
     0.000000000  0.000000000 40.000000000     0.000000000  0.000000000  0.025000000

  length of vectors
     7.000000000  7.000000000 40.000000000     0.164957220  0.164957220  0.025000000

 FORCES acting on ions
    electron-ion (+dipol)            ewald-force                    non-local-force                 convergence-correction
   0.188E-06 -.108E-06 0.992E-12   -.106E-11 0.554E-12 -.327E-12   0.350E-18 -.389E-19 0.847E-21   -.273E-12 -.328E-12 -.263E-12
   -.188E-06 0.108E-06 -.415E-11   -.103E-10 0.607E-11 -.256E-12   -.838E-18 -.775E-19 -.169E-20   0.404E-13 0.150E-12 -.336E-12
   -.263E+02 -.455E+02 0.404E+03   0.272E+02 0.472E+02 -.407E+03   -.939E+00 -.163E+01 0.268E+01   -.233E-07 -.404E-07 0.395E-07
   0.526E+02 0.271E-06 0.404E+03   -.545E+02 -.181E-11 -.407E+03   0.188E+01 -.345E-18 0.268E+01   0.466E-07 -.600E-11 0.395E-07
   -.526E+02 -.271E-06 -.404E+03   0.545E+02 -.102E-10 0.407E+03   -.188E+01 -.119E-18 -.268E+01   -.466E-07 0.607E-11 -.395E-07
   0.263E+02 -.455E+02 -.404E+03   -.272E+02 0.472E+02 0.407E+03   0.939E+00 -.163E+01 -.268E+01   0.233E-07 -.404E-07 -.395E-07
   0.263E+02 0.455E+02 -.404E+03   -.272E+02 -.472E+02 0.407E+03   0.939E+00 0.163E+01 -.268E+01   0.233E-07 0.404E-07 -.395E-07
   -.263E+02 0.455E+02 0.404E+03   0.272E+02 -.472E+02 -.407E+03   -.939E+00 0.163E+01 0.268E+01   -.233E-07 0.404E-07 0.395E-07
   0.515E-11 -.902E-10 -.770E-10   -.355E-13 0.711E-14 -.568E-13   0.222E-15 0.000E+00 -.133E-14   -.393E-12 -.130E-12 -.537E-11

 POSITION                                       TOTAL-FORCE (eV/Angst)
      0.00000     -0.00000     20.00000         0.000000     -0.000000     -0.000000
      0.00000      4.04145     20.00000         0.000000     -0.000000     -0.000000
     -1.26007      5.90039     18.43829         0.000000      0.000001      0.000000
     -0.97985      2.02073     18.43829        -0.000001     -0.000000      0.000000
      0.97985      2.02073     21.56171         0.000001     -0.000000     -0.000000
      1.26007      5.90039     21.56171        -0.000000      0.000001     -0.000000
     -2.23993      4.20324     21.56171        -0.000000     -0.000001     -0.000000
      2.23993      4.20324     18.43829         0.000000     -0.000001      0.000000
    total drift:                                0.000000     -0.000000     -0.000000

  FREE ENERGIE OF THE ION-ELECTRON SYSTEM (eV)
  free  energy   TOTEN  =       -31.48881254 eV

  energy  without entropy=      -31.48881254  energy(sigma->0) =      -31.48881254

 d Force = 0.8731348E-12[-0.102E-11, 0.277E-11]  d Energy =-0.2728484E-10 0.282E-10
 d Force = 0.1928379E-03[ 0.193E-03, 0.193E-03]  d Ewald  = 0.1928377E-03 0.184E-09

 Quasi-Newton relaxation of ions (Broydens 2nd method)
  g(Force)  = 0.120E-12   g(Stress)= 0.000E+00

 retain information from N=  1 steps
 eigenvalues of (default step * inverse Hessian matrix)
  average eigenvalue of G=   2.2083
 eigenvalue spectrum of G is  2.2083

 reached required accuracy - stopping structural energy minimisation

 total charge

[...]

 magnetization (x)

# of ion       s       p       d       tot
    1        0.039   0.045   3.018   3.101
    2        0.039   0.045   3.018   3.101
    3       -0.002  -0.081   0.005  -0.077
    4       -0.002  -0.081   0.005  -0.078
    5       -0.002  -0.081   0.005  -0.078
    6       -0.002  -0.081   0.005  -0.078
    7       -0.002  -0.081   0.005  -0.077
    8       -0.002  -0.081   0.005  -0.078
tot          0.067  -0.396   6.065   5.736

 BZINTS: Fermi energy: -4.295917; 54.000000 electrons
         Band energy:-457.876023;  BLOECHL correction:  0.000000