 vasp.5.4.4.18Apr17-6-g9f103f2a35 (build Apr 25 2017 18:29:20) complex

 executed on      IFC91_ompi_syO2 date 2018.05.09  14:41:45

 INCAR:
 POTCAR:    PAW_PBE Cr 06Sep2000
 POTCAR:    PAW_PBE I 08Apr2002

 POTCAR:    PAW_PBE Cr 06Sep2000
   VRHFIN =Cr : d5 s1

   TITEL  = PAW_PBE Cr 06Sep2000
   POMASS =   51.996; ZVAL   =    6.000    mass and valenz
   ENMAX  =  227.080; ENMIN  =  170.310 eV

 POTCAR:    PAW_PBE I 08Apr2002
   VRHFIN =I : s2p5

   TITEL  = PAW_PBE I 08Apr2002
   POMASS =  126.904; ZVAL   =    7.000    mass and valenz
   ENMAX  =  175.647; ENMIN  =  131.735 eV

  PAW_PBE Cr 06Sep2000                  :
  PAW_PBE I 08Apr2002                   :

 POSCAR: POSCAR
  positions in direct lattice
  velocities in cartesian coordinates
 exchange correlation table for  LEXCH =        8
   RHO(1)=    0.500       N(1)  =     2000
   RHO(2)=  100.500       N(2)  =     4000

 ion  position               nearest neighbor table
   1  0.000  0.000  0.500-   3 2.74   4 2.74   5 2.74   6 2.74   7 2.74   8 2.74
   2  0.333  0.667  0.500-   5 2.74   8 2.74   6 2.74   4 2.74   7 2.74   3 2.74
   3  0.307  0.973  0.461-   1 2.74   2 2.74
   4  0.027  0.333  0.461-   2 2.74   1 2.74
   5  0.307  0.333  0.539-   2 2.74   1 2.74
   6  0.667  0.973  0.539-   2 2.74   1 2.74
   7  0.027  0.693  0.539-   1 2.74   2 2.74
   8  0.667  0.693  0.461-   2 2.74   1 2.74

  LATTYP: Found a hexagonal cell.
 ALAT       =     7.0020000000
 C/A-ratio  =     5.7126535276

  Lattice vectors:

 A1 = (   7.0020000000,   0.0000000000,   0.0000000000)
 A2 = (  -3.5010000000,   6.0639098773,   0.0000000000)
 A3 = (   0.0000000000,   0.0000000000,  40.0000000000)

Analysis of symmetry for initial positions (statically):
 Subroutine PRICEL returns:
 Original cell was already a primitive cell.

 Routine SETGRP: Setting up the symmetry group for a
 hexagonal supercell.

 Subroutine GETGRP returns: Found 12 space group operations
 (whereof  6 operations were pure point group operations)
 out of a pool of 24 trial point group operations.

The static configuration has the point symmetry D_3 .
 The point group associated with its full space group is D_3d.

Analysis of symmetry for dynamics (positions and initial velocities):
 Subroutine PRICEL returns:
 Original cell was already a primitive cell.

[...]

The dynamic configuration has the point symmetry D_3 .
 The point group associated with its full space group is D_3d.

Analysis of structural, dynamic, and magnetic symmetry:
 Subroutine PRICEL returns:
 Original cell was already a primitive cell.

 Routine SETGRP: Setting up the symmetry group for a
 hexagonal supercell.

 Subroutine GETGRP returns: Found 12 space group operations
 (whereof  6 operations were pure point group operations)
 out of a pool of 24 trial point group operations.

The magnetic configuration has the point symmetry D_3 .
 The point group associated with its full space group is D_3d.

 Subroutine INISYM returns: Found 12 space group operations
 (whereof  6 operations are pure point group operations),
 and found     1 'primitive' translations

 KPOINTS: K-Points   # First line comment

Automatic generation of k-mesh.
Space group operators:
 irot       det(A)        alpha          n_x          n_y          n_z        tau_x        tau_y        tau_z
    1     1.000000     0.000000     1.000000     0.000000     0.000000     0.000000     0.000000     0.000000
    2     1.000000   120.000000     0.000000     0.000000    -1.000000     0.000000     0.000000     0.000000
    3     1.000000   120.000000     0.000000     0.000000     1.000000     0.000000     0.000000     0.000000
    4     1.000000   180.000000     0.866025    -0.500000     0.000000     0.000000     0.000000     0.000000
    5     1.000000   180.000000     0.000000     1.000000     0.000000     0.000000     0.000000     0.000000
    6     1.000000   180.000000     0.866025     0.500000     0.000000     0.000000     0.000000     0.000000
    7    -1.000000     0.000000     1.000000     0.000000     0.000000     0.333333     0.666667     0.000000
    8    -1.000000   120.000000     0.000000     0.000000    -1.000000     0.333333     0.666667     0.000000
    9    -1.000000   120.000000     0.000000     0.000000     1.000000     0.333333     0.666667     0.000000
   10    -1.000000   180.000000     0.866025    -0.500000     0.000000     0.333333     0.666667     0.000000
   11    -1.000000   180.000000     0.000000     1.000000     0.000000     0.333333     0.666667     0.000000
   12    -1.000000   180.000000     0.866025     0.500000     0.000000     0.333333     0.666667     0.000000

 Subroutine IBZKPT returns following result:

 Found     16 irreducible k-points:

 Following reciprocal coordinates:
            Coordinates               Weight
  0.000000  0.000000  0.000000      1.000000
  0.090909 -0.000000  0.000000      6.000000
  0.181818 -0.000000  0.000000      6.000000
  0.272727 -0.000000  0.000000      6.000000
  0.363636 -0.000000  0.000000      6.000000
  0.454545 -0.000000  0.000000      6.000000
  0.090909  0.090909  0.000000      6.000000
  0.181818  0.090909  0.000000     12.000000
  0.272727  0.090909  0.000000     12.000000
  0.363636  0.090909  0.000000     12.000000
  0.454545  0.090909  0.000000      6.000000
  0.181818  0.181818  0.000000      6.000000
  0.272727  0.181818  0.000000     12.000000
  0.363636  0.181818  0.000000     12.000000
  0.272727  0.272727  0.000000      6.000000
  0.363636  0.272727  0.000000      6.000000

 Following cartesian coordinates:
            Coordinates               Weight
  0.000000  0.000000  0.000000      1.000000
  0.012983  0.007496  0.000000      6.000000
  0.025967  0.014992  0.000000      6.000000
  0.038950  0.022488  0.000000      6.000000
  0.051933  0.029984  0.000000      6.000000
  0.064917  0.037480  0.000000      6.000000
  0.012983  0.022488  0.000000      6.000000
  0.025967  0.029984  0.000000     12.000000
  0.038950  0.037480  0.000000     12.000000
  0.051933  0.044975  0.000000     12.000000
  0.064917  0.052471  0.000000      6.000000
  0.025967  0.044975  0.000000      6.000000
  0.038950  0.052471  0.000000     12.000000
  0.051933  0.059967  0.000000     12.000000
  0.038950  0.067463  0.000000      6.000000
  0.051933  0.074959  0.000000      6.000000

 TETIRR: Found     66 inequivalent tetrahedra from      726

 SYSTEM =  monolayer-CrI3
 POSCAR =  POSCAR

 Startparameter for this run:
   NWRITE =      2    write-flag & timer
   PREC   = accura    normal or accurate (medium, high low for compatibility)
   ISTART =      0    job   : 0-new  1-cont  2-samecut
   ICHARG =      2    charge: 1-file 2-atom 10-const
   ISPIN  =      2    spin polarized calculation?
   LNONCOLLINEAR =      F non collinear calculations
   LSORBIT =      F    spin-orbit coupling
   INIWAV =      1    electr: 0-lowe 1-rand  2-diag
   LASPH  =      F    aspherical Exc in radial PAW
   METAGGA=      F    non-selfconsistent MetaGGA calc.

 Electronic Relaxation 1
   ENCUT  =  350.0 eV  25.72 Ry    5.07 a.u.  10.68 10.68 61.02*2*pi/ulx,y,z
   ENINI  =  350.0     initial cutoff
   ENAUG  =  402.1 eV  augmentation charge cutoff
   NELM   =     60;   NELMIN=  6; NELMDL= -5     # of ELM steps
   EDIFF  = 0.1E-06   stopping-criterion for ELM
   LREAL  =      F    real-space projection
   NLSPLINE    = F    spline interpolate recip. space projectors
   LCOMPAT=      F    compatible to vasp.4.4
   GGA_COMPAT  = T    GGA compatible to vasp.4.4-vasp.4.6
   LMAXPAW     = -100 max onsite density
   LMAXMIX     =    2 max onsite mixed and CHGCAR
   VOSKOWN=      0    Vosko Wilk Nusair interpolation
   ROPT   =    0.00000   0.00000
 Ionic relaxation
   EDIFFG = -.1E-05   stopping-criterion for IOM
   NSW    =    100    number of steps for IOM
   NBLOCK =      1;   KBLOCK =    100    inner block; outer block
   IBRION =      2    ionic relax: 0-MD 1-quasi-New 2-CG
   NFREE  =      1    steps in history (QN), initial steepest desc. (CG)
   ISIF   =      2    stress and relaxation
   IWAVPR =     11    prediction:  0-non 1-charg 2-wave 3-comb
   ISYM   =      2    0-nonsym 1-usesym 2-fastsym
   LCORR  =      T    Harris-Foulkes like correction to forces

   POTIM  = 0.0200    time-step for ionic-motion
   TEIN   =    0.0    initial temperature
   TEBEG  =    0.0;   TEEND  =   0.0 temperature during run
   SMASS  =  -3.00    Nose mass-parameter (am)
   estimated Nose-frequenzy (Omega)   =  0.10E-29 period in steps =****** mass=  -0.112E-26a.u.
   SCALEE = 1.0000    scale energy and forces
   NPACO  =    256;   APACO  = 16.0  distance and # of slots for P.C.
   PSTRESS=    0.0 pullay stress

  Mass of Ions in am
   POMASS =  52.00126.90
  Ionic Valenz
   ZVAL   =   6.00  7.00
  Atomic Wigner-Seitz radii
  virtual crystal weights
   VCA    =   1.00  1.00
   NELECT =      54.0000    total number of electrons
   NUPDOWN=      -1.0000    fix difference up-down

 DOS related values:
   EMIN   =  10.00;   EMAX   =-10.00  energy-range for DOS
   EFERMI =   0.00
   ISMEAR =    -5;   SIGMA  =   0.05  broadening in eV -4-tet -1-fermi 0-gaus

 Electronic relaxation 2 (details)
   IALGO  =     38    algorithm
   LDIAG  =      T    sub-space diagonalisation (order eigenvalues)
   LSUBROT=      F    optimize rotation matrix (better conditioning)
   TURBO    =      0    0=normal 1=particle mesh
   IRESTART =      0    0=no restart 2=restart with 2 vectors
   NREBOOT  =      0    no. of reboots
   NMIN     =      0    reboot dimension
   EREF     =   0.00    reference energy to select bands
   IMIX   =      4    mixing-type and parameters
     AMIX     =   0.40;   BMIX     =  1.00
     AMIX_MAG =   1.60;   BMIX_MAG =  1.00
     AMIN     =   0.10
     WC   =   100.;   INIMIX=   1;  MIXPRE=   1;  MAXMIX=  40

 Intra band minimization:
   WEIMIN = 0.0010     energy-eigenvalue tresh-hold
   EBREAK =  0.66E-09  absolut break condition
   DEPER  =   0.30     relativ break condition

   TIME   =   0.40     timestep for ELM

  volume/ion in A,a.u.               =     212.30      1432.65
  Fermi-wavevector in a.u.,A,eV,Ry     =   0.518634  0.980076  3.659714  0.268981
  Thomas-Fermi vector in A             =   1.535622

 Write flags
   LWAVE        =      T    write WAVECAR
   LDOWNSAMPLE  =      F    k-point downsampling of WAVECAR
   LCHARG       =      T    write CHGCAR
   LVTOT        =      F    write LOCPOT, total local potential
   LVHAR        =      F    write LOCPOT, Hartree potential only
   LELF         =      F    write electronic localiz. function (ELF)
   LORBIT       =     11    0 simple, 1 ext, 2 COOP (PROOUT), +10 PAW based schemes

 Dipole corrections
   LMONO  =      F    monopole corrections only (constant potential shift)
   LDIPOL =      F    correct potential (dipole corrections)
   IDIPOL =      0    1-x, 2-y, 3-z, 4-all directions
   EPSILON=  1.0000000 bulk dielectric constant

 Exchange correlation treatment:
   GGA     =    PE    GGA type
   VOSKOWN=      0    Vosko Wilk Nusair interpolation
   LHFCALC =     F    Hartree Fock is set to
   LHFONE  =     F    Hartree Fock one center treatment
   AEXX    =    0.0000 exact exchange contribution

 Linear response parameters
[...]
  rms(prec ) = 0.16854E+01
  weight for this iteration     100.00

[...]

 eigenvalues of (default mixing * dielectric matrix)
  average eigenvalue GAMMA=   0.3095
  0.3095

[...]

 eigenvalue-minimisations  :  1630
 total energy-change (2. order) :-0.6242499E-07  (-0.6342233E-11)
 number of electron      54.0000000 magnetization       6.0000010
 augmentation part       -4.7234163 magnetization       4.3102386

[...]

 average (electrostatic) potential at core
  the test charge radii are     1.1394  1.1875
  (the norm of the test charge is              1.0000)
       1 -52.7316       2 -52.7316       3 -99.6382       4 -99.6382       5 -99.6382
       6 -99.6382       7 -99.6382       8 -99.6382

 E-fermi :  -4.2969     XC(G=0):  -1.6374     alpha+bet : -1.4754

 spin component 1

 k-point     1 :       0.0000    0.0000    0.0000
  band No.  band energies     occupation
      1     -17.0103      1.00000
      2     -16.2655      1.00000
      3     -16.0604      1.00000
      4     -16.0604      1.00000
      5     -15.9046      1.00000
      6     -15.9046      1.00000
      7      -8.7664      1.00000
      8      -8.1558      1.00000
      9      -7.6245      1.00000
     10      -7.6245      1.00000
     11      -7.5460      1.00000
     12      -7.5460      1.00000
     13      -7.3284      1.00000
     14      -6.9297      1.00000
     15      -6.9297      1.00000
     16      -6.6392      1.00000
     17      -6.4102      1.00000
     18      -6.4102      1.00000
     19      -5.7701      1.00000
     20      -5.4419      1.00000
     21      -5.4419      1.00000
     22      -5.3315      1.00000
     23      -5.2949      1.00000
     24      -5.0465      1.00000
     25      -5.0465      1.00000
     26      -4.8920      1.00000
     27      -4.7955      1.00000
     28      -4.7955      1.00000
     29      -4.3587      1.00000
     30      -4.3587      1.00000
     31      -3.1416      0.00000
     32      -3.1416      0.00000
     33      -2.7328      0.00000
     34      -2.7328      0.00000
     35       0.3202      0.00000
     36       0.5638      0.00000
     37       1.0243      0.00000
     38       1.2148      0.00000

[...]

 soft charge-density along one line, spin component           1
         0         1         2         3         4         5         6         7         8         9
 total charge-density along one line

[...]

------------------------ aborting loop because EDIFF is reached ----------------------------------------

 total charge

# of ion       s       p       d       tot
    1        0.323   0.412   4.185   4.920
    2        0.323   0.412   4.185   4.920
    3        1.511   2.767   0.022   4.300
    4        1.512   2.767   0.021   4.301
    5        1.512   2.767   0.021   4.301
    6        1.514   2.759   0.021   4.295
    7        1.511   2.767   0.022   4.300
    8        1.514   2.759   0.021   4.295
tot          9.721  17.410   8.499  35.630

 magnetization (x)

[...]

  FORCE on cell =-STRESS in cart. coord.  units (eV):
  Direction    XX          YY          ZZ          XY          YZ          ZX
  Alpha Z     8.00747     8.00747     8.00747
  Ewald   15162.46666 15162.46666-16609.26877     0.00000     0.00000    -0.00000
  Hartree 15568.20141 15568.20141-15308.69054    -0.00000     0.00000     0.00000
  E(xc)    -215.64209  -215.64210  -216.10868    -0.00000    -0.00000    -0.00000
  Local  -31721.14739-31721.14746 30926.23560    -0.00007     0.00000     0.00000
  n-local   816.93753   817.27633   817.39466    -0.74885    -0.50566     0.12737
  augment  -160.24919  -160.24911  -160.73205     0.00007     0.00000     0.00000
  Kinetic   541.60466   540.73414   543.08129     1.31622    -0.34601     0.01418
  Fock        0.00000     0.00000     0.00000     0.00000     0.00000     0.00000
  Total      -0.08681    -0.08681    -0.08102     0.00000     0.00000     0.00000
  in kB      -0.08189    -0.08189    -0.07643     0.00000     0.00000     0.00000

 VOLUME and BASIS-vectors are now :
  energy-cutoff  :      350.00
  volume of cell :     1698.38
      direct lattice vectors                 reciprocal lattice vectors
     7.002000000  0.000000000  0.000000000     0.142816338  0.082455051  0.000000000
    -3.501000000  6.063909877  0.000000000     0.000000000  0.164910103  0.000000000
     0.000000000  0.000000000 40.000000000     0.000000000  0.000000000  0.025000000

[...]

 FORCES acting on ions
    electron-ion (+dipol)            ewald-force                    non-local-force                 convergence-correction
   0.202E-06 -.116E-06 0.571E-12   -.107E-11 0.711E-12 0.000E+00   -.151E-18 -.106E-17 0.106E-21   -.528E-11 0.307E-11 0.251E-12
   -.202E-06 0.116E-06 -.453E-11   -.104E-10 0.598E-11 -.142E-13   -.176E-18 0.507E-18 0.106E-21   0.529E-11 -.306E-11 0.252E-12
   -.263E+02 -.455E+02 0.404E+03   0.272E+02 0.472E+02 -.406E+03   -.939E+00 -.163E+01 0.268E+01   0.241E-06 0.418E-06 -.302E-05
   0.526E+02 0.297E-06 0.404E+03   -.545E+02 -.536E-11 -.406E+03   0.188E+01 -.988E-18 0.268E+01   -.483E-06 0.681E-10 -.302E-05
   -.526E+02 -.298E-06 -.404E+03   0.545E+02 -.105E-10 0.406E+03   -.188E+01 -.477E-18 -.268E+01   0.483E-06 -.681E-10 0.302E-05
   0.263E+02 -.455E+02 -.404E+03   -.272E+02 0.472E+02 0.406E+03   0.939E+00 -.163E+01 -.268E+01   -.242E-06 0.418E-06 0.302E-05
   0.263E+02 0.455E+02 -.404E+03   -.272E+02 -.472E+02 0.406E+03   0.939E+00 0.163E+01 -.268E+01   -.241E-06 -.418E-06 0.302E-05
   -.263E+02 0.455E+02 0.404E+03   0.272E+02 -.472E+02 -.406E+03   -.939E+00 0.163E+01 0.268E+01   0.242E-06 -.418E-06 -.302E-05
   0.158E-09 -.898E-10 -.629E-10   0.107E-13 0.711E-14 0.000E+00   -.555E-15 0.222E-15 0.888E-15   0.110E-13 0.110E-13 0.201E-11

 POSITION                                       TOTAL-FORCE (eV/Angst)
      0.00000      0.00000     20.00000         0.000000      0.000000     -0.000000
      0.00000      4.04261     20.00000         0.000000      0.000000     -0.000000
     -1.26064      5.90172     18.43852         0.000000      0.000001      0.000005
     -0.97972      2.02130     18.43852        -0.000001      0.000000      0.000005
      0.97972      2.02130     21.56148         0.000001      0.000000     -0.000005
      1.26064      5.90172     21.56148        -0.000000      0.000001     -0.000005
     -2.24036      4.20479     21.56148        -0.000000     -0.000001     -0.000005
      2.24036      4.20479     18.43852         0.000000     -0.000001      0.000005
    total drift:                                0.000000     -0.000000     -0.000000

  FREE ENERGIE OF THE ION-ELECTRON SYSTEM (eV)
  free  energy   TOTEN  =       -31.48746981 eV

  energy  without entropy=      -31.48746981  energy(sigma->0) =      -31.48746981

[...]

 eigenvalue-minimisations  :  1696
 total energy-change (2. order) :-0.9316227E-07  ( 0.3547076E-11)
 number of electron      54.0000000 magnetization       6.0000011
 augmentation part       -4.7234165 magnetization       4.3102383

[...]

 d Force = 0.2585786E-12[ 0.206E-12, 0.311E-12]  d Energy = 0.5897891E-07-0.590E-07
 d Force =-0.2387149E-04[-0.239E-04,-0.239E-04]  d Ewald  =-0.2387141E-04-0.837E-10

 Steepest descent step on ions:
 trial-energy change:   -0.000000  1 .order   -0.000000   -0.000000   -0.000000
  (g-gl).g = 0.311E-12      g.g   = 0.311E-12  gl.gl    = 0.000E+00
 g(Force)  = 0.311E-12   g(Stress)= 0.000E+00 ortho     = 0.000E+00
 gamma     =   0.00000
 trial     =   1.00000
 opt step  =   2.96017  (harmonic =   2.96017) maximal distance =0.00000003
 next E    =   -31.487470   (d E  =  -0.00000)

[...]

 eigenvalue-minimisations  :  1630
 total energy-change (2. order) : 0.1546141E-10  ( 0.1020315E-10)
 number of electron      54.0000000 magnetization       6.0000011
 augmentation part       -4.7234165 magnetization       4.3102384

[...]

 d Force = 0.1995578E-11[ 0.158E-11, 0.241E-11]  d Energy = 0.3938112E-09-0.392E-09
 d Force =-0.3743373E-03[-0.374E-03,-0.374E-03]  d Ewald  =-0.3743374E-03 0.113E-09

[...]

 eigenvalue-minimisations  :  1366
 total energy-change (2. order) : 0.3205969E-09  (-0.3447404E-10)
 number of electron      54.0000000 magnetization       6.0000009
 augmentation part       -4.7234162 magnetization       4.3102377

[...]

 eigenvalue-minimisations  :  1318
 total energy-change (2. order) : 0.8185452E-11  ( 0.9868242E-11)
 number of electron      54.0000000 magnetization       6.0000010
 augmentation part       -4.7234165 magnetization       4.3102376

 Broyden mixing:
  rms(total) = 0.86830E-07    rms(broyden)= 0.86814E-07
  rms(prec ) = 0.86965E-07
  weight for this iteration     100.00

 eigenvalues of (default mixing * dielectric matrix)
  average eigenvalue GAMMA=   1.4204
  5.8644  4.4419  4.4419  3.3014  2.6466  2.6466  2.4291  2.4291  2.0929  1.8221
  1.6584  1.6584  0.8245  0.8245  0.9450  0.9450  1.3365  0.0920  0.1333  0.5973
  0.5973  0.9616  0.9616  0.5091  0.5091  0.4738  0.7459  0.7459  0.7695  0.5717
  0.7048  0.6146  0.6146  0.6765  0.6765  0.6452  0.6452

[...]

--------------------------------------- Iteration      7(   6)  ---------------------------------------

[...]

 eigenvalue-minimisations  :  1306
 total energy-change (2. order) :-0.3410605E-10  ( 0.9679846E-11)
 number of electron      54.0000000 magnetization       6.0000010
 augmentation part       -4.7234165 magnetization       4.3102376

 Free energy of the ion-electron system (eV)
  alpha Z        PSCENC =         8.00746852
  Ewald energy   TEWEN  =     13715.66713311
  -Hartree energ DENC   =    -15827.71368524
  -exchange      EXHF   =         0.00000000
  -V(xc)+E(xc)   XCENC  =      -114.53244731
  PAW double counting   =      3099.83278731    -2903.79056510
  entropy T*S    EENTRO =         0.00000000
  eigenvalues    EBANDS =      -457.91452904
  atomic energy  EATOM  =      2448.95636788
  Solvation  Ediel_sol  =         0.00000000
  free energy    TOTEN  =       -31.48746987 eV

  energy without entropy =      -31.48746987  energy(sigma->0) =      -31.48746987

 average (electrostatic) potential at core
  the test charge radii are     1.1394  1.1875
  (the norm of the test charge is              1.0000)
       1 -52.7316       2 -52.7316       3 -99.6382       4 -99.6382       5 -99.6382
       6 -99.6382       7 -99.6382       8 -99.6382

 E-fermi :  -4.2969     XC(G=0):  -1.6345     alpha+bet : -1.4754

[...]

 spin component 2

[...]

 k-point    16 :       0.3636    0.2727    0.0000
  band No.  band energies     occupation
      1     -16.6289      1.00000
      2     -16.5485      1.00000
      3     -16.2556      1.00000
      4     -16.1264      1.00000
      5     -16.0962      1.00000
      6     -16.0096      1.00000
      7      -8.0914      1.00000
      8      -7.9334      1.00000
      9      -7.5359      1.00000
     10      -7.4153      1.00000
     11      -7.3859      1.00000
     12      -6.9928      1.00000
     13      -6.9132      1.00000
     14      -6.8025      1.00000
     15      -6.3444      1.00000
     16      -6.1329      1.00000
     17      -5.8521      1.00000
     18      -5.7017      1.00000
     19      -5.6140      1.00000
     20      -5.3799      1.00000
     21      -5.2882      1.00000
     22      -5.2676      1.00000
     23      -4.9916      1.00000
     24      -4.9552      1.00000
     25      -2.3655      0.00000
     26      -2.3382      0.00000
     27      -2.2010      0.00000
     28      -2.1671      0.00000
     29      -1.9840      0.00000
     30      -1.9768      0.00000
     31      -1.6188      0.00000
     32      -1.5555      0.00000
     33      -1.5405      0.00000
     34      -1.4169      0.00000
     35       0.9465      0.00000
     36       1.0582      0.00000
     37       1.5127      0.00000
     38       1.7792      0.00000

[...]

 soft charge-density along one line, spin component           2
         0         1         2         3         4         5         6         7         8         9
 total charge-density along one line

------------------------ aborting loop because EDIFF is reached ----------------------------------------

[...]

  FORCE on cell =-STRESS in cart. coord.  units (eV):
  Direction    XX          YY          ZZ          XY          YZ          ZX
  Alpha Z     8.00747     8.00747     8.00747
  Ewald   15162.46829 15162.46829-16609.27057    -0.00000     0.00000     0.00000
  Hartree 15568.20286 15568.20286-15308.69203    -0.00000     0.00000     0.00000
  E(xc)    -215.64210  -215.64210  -216.10868    -0.00000    -0.00000    -0.00000
  Local  -31721.15047-31721.15054 30926.23887    -0.00007     0.00000     0.00000
  n-local   816.93755   817.27635   817.39467    -0.74885    -0.50566     0.12737
  augment  -160.24919  -160.24911  -160.73204     0.00007     0.00000     0.00000
  Kinetic   541.60465   540.73413   543.08132     1.31622    -0.34601     0.01418
  Fock        0.00000     0.00000     0.00000     0.00000     0.00000     0.00000
  Total      -0.08679    -0.08679    -0.08099    -0.00000     0.00000     0.00000
  in kB      -0.08187    -0.08187    -0.07640    -0.00000     0.00000     0.00000

 VOLUME and BASIS-vectors are now :
  energy-cutoff  :      350.00
  volume of cell :     1698.38
      direct lattice vectors                 reciprocal lattice vectors
     7.002000000  0.000000000  0.000000000     0.142816338  0.082455051  0.000000000
    -3.501000000  6.063909877  0.000000000     0.000000000  0.164910103  0.000000000
     0.000000000  0.000000000 40.000000000     0.000000000  0.000000000  0.025000000

  length of vectors
     7.002000000  7.002000000 40.000000000     0.164910103  0.164910103  0.025000000

 FORCES acting on ions
    electron-ion (+dipol)            ewald-force                    non-local-force                 convergence-correction
   0.202E-06 -.116E-06 0.982E-11   -.113E-11 0.639E-12 0.142E-13   -.114E-17 0.188E-17 0.953E-21   0.614E-13 -.336E-12 0.104E-11
   -.202E-06 0.116E-06 -.530E-11   -.103E-10 0.597E-11 -.284E-13   0.929E-18 -.133E-17 0.953E-21   -.407E-12 0.259E-12 0.115E-11
   -.263E+02 -.455E+02 0.404E+03   0.272E+02 0.472E+02 -.406E+03   -.939E+00 -.163E+01 0.268E+01   -.430E-07 -.745E-07 -.902E-06
   0.526E+02 0.297E-06 0.404E+03   -.545E+02 -.182E-11 -.406E+03   0.188E+01 -.738E-18 0.268E+01   0.860E-07 -.360E-11 -.902E-06
   -.526E+02 -.297E-06 -.404E+03   0.545E+02 -.103E-10 0.406E+03   -.188E+01 0.118E-17 -.268E+01   -.860E-07 0.361E-11 0.902E-06
   0.263E+02 -.455E+02 -.404E+03   -.272E+02 0.472E+02 0.406E+03   0.939E+00 -.163E+01 -.268E+01   0.430E-07 -.745E-07 0.902E-06
   0.263E+02 0.455E+02 -.404E+03   -.272E+02 -.472E+02 0.406E+03   0.939E+00 0.163E+01 -.268E+01   0.430E-07 0.745E-07 0.902E-06
   -.263E+02 0.455E+02 0.404E+03   0.272E+02 -.472E+02 -.406E+03   -.939E+00 0.163E+01 0.268E+01   -.430E-07 0.745E-07 -.902E-06
   0.142E-09 -.709E-10 -.732E-10   0.711E-14 0.000E+00 0.000E+00   0.444E-15 0.222E-15 -.444E-15   -.499E-12 -.827E-13 0.764E-11

 POSITION                                       TOTAL-FORCE (eV/Angst)
      0.00000      0.00000     20.00000         0.000000     -0.000000      0.000000
      0.00000      4.04261     20.00000         0.000000     -0.000000      0.000000
     -1.26064      5.90172     18.43852         0.000000      0.000001     -0.000000
     -0.97972      2.02130     18.43852        -0.000001     -0.000000     -0.000000
      0.97972      2.02130     21.56148         0.000001     -0.000000      0.000000
      1.26064      5.90172     21.56148        -0.000000      0.000001      0.000000
     -2.24036      4.20479     21.56148        -0.000000     -0.000001      0.000000
      2.24036      4.20479     18.43852         0.000000     -0.000001     -0.000000
    total drift:                                0.000000     -0.000000     -0.000000

  FREE ENERGIE OF THE ION-ELECTRON SYSTEM (eV)
  free  energy   TOTEN  =       -31.48746987 eV

  energy  without entropy=      -31.48746987  energy(sigma->0) =      -31.48746987

 d Force = 0.1424573E-11[-0.313E-12, 0.316E-11]  d Energy = 0.6157279E-09-0.614E-09
 d Force =-0.7486745E-03[-0.749E-03,-0.749E-03]  d Ewald  =-0.7486747E-03 0.229E-09

 reached required accuracy - stopping structural energy minimisation
 writing wavefunctions

 total charge

[...]

 magnetization (x)

# of ion       s       p       d       tot
    1        0.039   0.045   3.018   3.101
    2        0.039   0.045   3.018   3.101
    3       -0.002  -0.081   0.005  -0.077
    4       -0.002  -0.081   0.005  -0.078
    5       -0.002  -0.081   0.005  -0.078
    6       -0.002  -0.081   0.005  -0.078
    7       -0.002  -0.081   0.005  -0.077
    8       -0.002  -0.081   0.005  -0.078
tot          0.067  -0.397   6.065   5.735

 BZINTS: Fermi energy: -4.296917; 54.000000 electrons
         Band energy:-457.914529;  BLOECHL correction:  0.000000