 vasp.5.4.4.18Apr17-6-g9f103f2a35 (build Apr 25 2017 18:29:20) complex

 executed on      IFC91_ompi_syO2 date 2018.05.09  05:10:59

 INCAR:
 POTCAR:    PAW_PBE Cr 06Sep2000
 POTCAR:    PAW_PBE I 08Apr2002

 POTCAR:    PAW_PBE Cr 06Sep2000
   VRHFIN =Cr : d5 s1

   TITEL  = PAW_PBE Cr 06Sep2000
   POMASS =   51.996; ZVAL   =    6.000    mass and valenz
   ENMAX  =  227.080; ENMIN  =  170.310 eV

 POTCAR:    PAW_PBE I 08Apr2002
   VRHFIN =I : s2p5

   TITEL  = PAW_PBE I 08Apr2002
   POMASS =  126.904; ZVAL   =    7.000    mass and valenz
   ENMAX  =  175.647; ENMIN  =  131.735 eV

  PAW_PBE Cr 06Sep2000                  :
  PAW_PBE I 08Apr2002                   :

 POSCAR: POSCAR
  positions in direct lattice
  velocities in cartesian coordinates
 exchange correlation table for  LEXCH =        8
   RHO(1)=    0.500       N(1)  =     2000
   RHO(2)=  100.500       N(2)  =     4000

 ion  position               nearest neighbor table
   1  0.000  0.000  0.500-   3 2.74   6 2.74   7 2.74   8 2.74   5 2.74   4 2.74
   2  0.333  0.667  0.500-   5 2.74   8 2.74   6 2.74   4 2.74   7 2.74   3 2.74
   3  0.307  0.973  0.461-   1 2.74   2 2.74
   4  0.027  0.333  0.461-   2 2.74   1 2.74
   5  0.307  0.333  0.539-   2 2.74   1 2.74
   6  0.667  0.973  0.539-   2 2.74   1 2.74
   7  0.027  0.693  0.539-   1 2.74   2 2.74
   8  0.667  0.693  0.461-   2 2.74   1 2.74

  LATTYP: Found a hexagonal cell.
 ALAT       =     7.0020000000
 C/A-ratio  =     5.7126535276

  Lattice vectors:

 A1 = (   7.0020000000,   0.0000000000,   0.0000000000)
 A2 = (  -3.5010000000,   6.0639098773,   0.0000000000)
 A3 = (   0.0000000000,   0.0000000000,  40.0000000000)

Analysis of symmetry for initial positions (statically):
 Subroutine PRICEL returns:
 Original cell was already a primitive cell.

 Routine SETGRP: Setting up the symmetry group for a
 hexagonal supercell.

 Subroutine GETGRP returns: Found 12 space group operations
 (whereof  6 operations were pure point group operations)
 out of a pool of 24 trial point group operations.

The static configuration has the point symmetry D_3 .
 The point group associated with its full space group is D_3d.

Analysis of symmetry for dynamics (positions and initial velocities):
 Subroutine PRICEL returns:
 Original cell was already a primitive cell.

[...]

The dynamic configuration has the point symmetry D_3 .
 The point group associated with its full space group is D_3d.

Analysis of structural, dynamic, and magnetic symmetry:
 Subroutine PRICEL returns:
 Original cell was already a primitive cell.

 Routine SETGRP: Setting up the symmetry group for a
 hexagonal supercell.

 Subroutine GETGRP returns: Found 12 space group operations
 (whereof  6 operations were pure point group operations)
 out of a pool of 24 trial point group operations.

The magnetic configuration has the point symmetry D_3 .
 The point group associated with its full space group is D_3d.

 Subroutine INISYM returns: Found 12 space group operations
 (whereof  6 operations are pure point group operations),
 and found     1 'primitive' translations

 KPOINTS: K-Points   # First line comment

Automatic generation of k-mesh.
Space group operators:
 irot       det(A)        alpha          n_x          n_y          n_z        tau_x        tau_y        tau_z
    1     1.000000     0.000000     1.000000     0.000000     0.000000     0.000000     0.000000     0.000000
    2     1.000000   120.000000     0.000000     0.000000    -1.000000     0.000000     0.000000     0.000000
    3     1.000000   120.000000     0.000000     0.000000     1.000000     0.000000     0.000000     0.000000
    4     1.000000   180.000000     0.866025    -0.500000     0.000000     0.000000     0.000000     0.000000
    5     1.000000   180.000000     0.000000     1.000000     0.000000     0.000000     0.000000     0.000000
    6     1.000000   180.000000     0.866025     0.500000     0.000000     0.000000     0.000000     0.000000
    7    -1.000000     0.000000     1.000000     0.000000     0.000000     0.333333     0.666667     0.000000
    8    -1.000000   120.000000     0.000000     0.000000    -1.000000     0.333333     0.666667     0.000000
    9    -1.000000   120.000000     0.000000     0.000000     1.000000     0.333333     0.666667     0.000000
   10    -1.000000   180.000000     0.866025    -0.500000     0.000000     0.333333     0.666667     0.000000
   11    -1.000000   180.000000     0.000000     1.000000     0.000000     0.333333     0.666667     0.000000
   12    -1.000000   180.000000     0.866025     0.500000     0.000000     0.333333     0.666667     0.000000

 Subroutine IBZKPT returns following result:

 Found     16 irreducible k-points:

 Following reciprocal coordinates:
            Coordinates               Weight
  0.000000  0.000000  0.000000      1.000000
  0.090909 -0.000000  0.000000      6.000000
  0.181818 -0.000000  0.000000      6.000000
  0.272727 -0.000000  0.000000      6.000000
  0.363636 -0.000000  0.000000      6.000000
  0.454545 -0.000000  0.000000      6.000000
  0.090909  0.090909  0.000000      6.000000
  0.181818  0.090909  0.000000     12.000000
  0.272727  0.090909  0.000000     12.000000
  0.363636  0.090909  0.000000     12.000000
  0.454545  0.090909  0.000000      6.000000
  0.181818  0.181818  0.000000      6.000000
  0.272727  0.181818  0.000000     12.000000
  0.363636  0.181818  0.000000     12.000000
  0.272727  0.272727  0.000000      6.000000
  0.363636  0.272727  0.000000      6.000000

 Following cartesian coordinates:
            Coordinates               Weight
  0.000000  0.000000  0.000000      1.000000
  0.012983  0.007496  0.000000      6.000000
  0.025967  0.014992  0.000000      6.000000
  0.038950  0.022488  0.000000      6.000000
  0.051933  0.029984  0.000000      6.000000
  0.064917  0.037480  0.000000      6.000000
  0.012983  0.022488  0.000000      6.000000
  0.025967  0.029984  0.000000     12.000000
  0.038950  0.037480  0.000000     12.000000
  0.051933  0.044975  0.000000     12.000000
  0.064917  0.052471  0.000000      6.000000
  0.025967  0.044975  0.000000      6.000000
  0.038950  0.052471  0.000000     12.000000
  0.051933  0.059967  0.000000     12.000000
  0.038950  0.067463  0.000000      6.000000
  0.051933  0.074959  0.000000      6.000000

 TETIRR: Found     66 inequivalent tetrahedra from      726

 SYSTEM =  monolayer-CrI3
 POSCAR =  POSCAR

 Startparameter for this run:
   NWRITE =      2    write-flag & timer
   PREC   = accura    normal or accurate (medium, high low for compatibility)
   ISTART =      0    job   : 0-new  1-cont  2-samecut
   ICHARG =      2    charge: 1-file 2-atom 10-const
   ISPIN  =      2    spin polarized calculation?
   LNONCOLLINEAR =      F non collinear calculations
   LSORBIT =      F    spin-orbit coupling
   INIWAV =      1    electr: 0-lowe 1-rand  2-diag
   LASPH  =      F    aspherical Exc in radial PAW
   METAGGA=      F    non-selfconsistent MetaGGA calc.

 Electronic Relaxation 1
   ENCUT  =  400.0 eV  29.40 Ry    5.42 a.u.  11.42 11.42 65.23*2*pi/ulx,y,z
   ENINI  =  400.0     initial cutoff
   ENAUG  =  402.1 eV  augmentation charge cutoff
   NELM   =     60;   NELMIN=  6; NELMDL= -5     # of ELM steps
   EDIFF  = 0.1E-06   stopping-criterion for ELM
   LREAL  =      F    real-space projection
   NLSPLINE    = F    spline interpolate recip. space projectors
   LCOMPAT=      F    compatible to vasp.4.4
   GGA_COMPAT  = T    GGA compatible to vasp.4.4-vasp.4.6
   LMAXPAW     = -100 max onsite density
   LMAXMIX     =    2 max onsite mixed and CHGCAR
   VOSKOWN=      0    Vosko Wilk Nusair interpolation
   ROPT   =    0.00000   0.00000
 Ionic relaxation
   EDIFFG = -.1E-05   stopping-criterion for IOM
   NSW    =    100    number of steps for IOM
   NBLOCK =      1;   KBLOCK =    100    inner block; outer block
   IBRION =      1    ionic relax: 0-MD 1-quasi-New 2-CG
   NFREE  =      0    steps in history (QN), initial steepest desc. (CG)
   ISIF   =      2    stress and relaxation
   IWAVPR =     11    prediction:  0-non 1-charg 2-wave 3-comb
   ISYM   =      2    0-nonsym 1-usesym 2-fastsym
   LCORR  =      T    Harris-Foulkes like correction to forces

   POTIM  = 0.5000    time-step for ionic-motion
   TEIN   =    0.0    initial temperature
   TEBEG  =    0.0;   TEEND  =   0.0 temperature during run
   SMASS  =  -3.00    Nose mass-parameter (am)
   estimated Nose-frequenzy (Omega)   =  0.10E-29 period in steps =****** mass=  -0.112E-26a.u.
   SCALEE = 1.0000    scale energy and forces
   NPACO  =    256;   APACO  = 16.0  distance and # of slots for P.C.
   PSTRESS=    0.0 pullay stress

  Mass of Ions in am
   POMASS =  52.00126.90
  Ionic Valenz
   ZVAL   =   6.00  7.00
  Atomic Wigner-Seitz radii
  virtual crystal weights
   VCA    =   1.00  1.00
   NELECT =      54.0000    total number of electrons
   NUPDOWN=      -1.0000    fix difference up-down

 DOS related values:
   EMIN   =  10.00;   EMAX   =-10.00  energy-range for DOS
   EFERMI =   0.00
   ISMEAR =    -5;   SIGMA  =   0.05  broadening in eV -4-tet -1-fermi 0-gaus

 Electronic relaxation 2 (details)
   IALGO  =     38    algorithm
   LDIAG  =      T    sub-space diagonalisation (order eigenvalues)
   LSUBROT=      F    optimize rotation matrix (better conditioning)
   TURBO    =      0    0=normal 1=particle mesh
   IRESTART =      0    0=no restart 2=restart with 2 vectors
   NREBOOT  =      0    no. of reboots
   NMIN     =      0    reboot dimension
   EREF     =   0.00    reference energy to select bands
   IMIX   =      4    mixing-type and parameters
     AMIX     =   0.40;   BMIX     =  1.00
     AMIX_MAG =   1.60;   BMIX_MAG =  1.00
     AMIN     =   0.10
     WC   =   100.;   INIMIX=   1;  MIXPRE=   1;  MAXMIX=  40

 Intra band minimization:
   WEIMIN = 0.0010     energy-eigenvalue tresh-hold
   EBREAK =  0.66E-09  absolut break condition
   DEPER  =   0.30     relativ break condition

   TIME   =   0.40     timestep for ELM

  volume/ion in A,a.u.               =     212.30      1432.65
  Fermi-wavevector in a.u.,A,eV,Ry     =   0.518634  0.980076  3.659714  0.268981
  Thomas-Fermi vector in A             =   1.535622

 Write flags
   LWAVE        =      T    write WAVECAR
   LDOWNSAMPLE  =      F    k-point downsampling of WAVECAR
   LCHARG       =      T    write CHGCAR
   LVTOT        =      F    write LOCPOT, total local potential
   LVHAR        =      F    write LOCPOT, Hartree potential only
   LELF         =      F    write electronic localiz. function (ELF)
   LORBIT       =     11    0 simple, 1 ext, 2 COOP (PROOUT), +10 PAW based schemes

 Dipole corrections
   LMONO  =      F    monopole corrections only (constant potential shift)
   LDIPOL =      F    correct potential (dipole corrections)
   IDIPOL =      0    1-x, 2-y, 3-z, 4-all directions
   EPSILON=  1.0000000 bulk dielectric constant

 Exchange correlation treatment:
   GGA     =    PE    GGA type
   VOSKOWN=      0    Vosko Wilk Nusair interpolation
   LHFCALC =     F    Hartree Fock is set to
   LHFONE  =     F    Hartree Fock one center treatment
   AEXX    =    0.0000 exact exchange contribution

 Linear response parameters
[...]

 E-fermi :  -4.2969     XC(G=0):  -1.6371     alpha+bet : -1.4754

 spin component 1

 k-point     1 :       0.0000    0.0000    0.0000
  band No.  band energies     occupation
      1     -17.0104      1.00000
      2     -16.2657      1.00000
      3     -16.0606      1.00000
      4     -16.0606      1.00000
      5     -15.9047      1.00000
      6     -15.9047      1.00000
      7      -8.7666      1.00000
      8      -8.1558      1.00000
      9      -7.6246      1.00000
     10      -7.6246      1.00000
     11      -7.5461      1.00000
     12      -7.5461      1.00000
     13      -7.3287      1.00000
     14      -6.9298      1.00000
     15      -6.9298      1.00000
     16      -6.6390      1.00000
     17      -6.4102      1.00000
     18      -6.4102      1.00000
     19      -5.7698      1.00000
     20      -5.4421      1.00000
     21      -5.4421      1.00000
     22      -5.3319      1.00000
     23      -5.2950      1.00000
     24      -5.0468      1.00000
     25      -5.0468      1.00000
     26      -4.8922      1.00000
     27      -4.7957      1.00000
     28      -4.7957      1.00000
     29      -4.3587      1.00000
     30      -4.3587      1.00000
     31      -3.1416      0.00000
     32      -3.1416      0.00000
     33      -2.7328      0.00000
     34      -2.7328      0.00000
     35       0.3205      0.00000
     36       0.5642      0.00000
     37       1.0252      0.00000
     38       1.2152      0.00000

[...]

 soft charge-density along one line, spin component           1
         0         1         2         3         4         5         6         7         8         9
 total charge-density along one line

[...]

------------------------ aborting loop because EDIFF is reached ----------------------------------------

 total charge

# of ion       s       p       d       tot
    1        0.322   0.412   4.186   4.920
    2        0.322   0.412   4.186   4.920
    3        1.511   2.767   0.022   4.299
    4        1.512   2.766   0.021   4.300
    5        1.512   2.766   0.021   4.300
    6        1.514   2.759   0.021   4.294
    7        1.511   2.767   0.022   4.299
    8        1.514   2.759   0.021   4.294
tot          9.720  17.407   8.500  35.628

 magnetization (x)

[...]

  FORCE on cell =-STRESS in cart. coord.  units (eV):
  Direction    XX          YY          ZZ          XY          YZ          ZX
  Alpha Z     8.00747     8.00747     8.00747
  Ewald   15162.50416 15162.50416-16609.26205     0.00000     0.00000     0.00000
  Hartree 15568.25051 15568.25051-15308.69600    -0.00000     0.00000     0.00000
  E(xc)    -215.64648  -215.64648  -216.11271    -0.00000    -0.00000    -0.00000
  Local  -31721.14575-31721.14583 30926.32645    -0.00007     0.00000     0.00000
  n-local   816.91164   817.25029   817.36749    -0.74814    -0.50601     0.12742
  augment  -160.26464  -160.26456  -160.74349     0.00007     0.00000     0.00000
  Kinetic   541.61261   540.74250   543.08623     1.31591    -0.34615     0.01420
  Fock        0.00000     0.00000     0.00000     0.00000     0.00000     0.00000
  Total      -0.03621    -0.03621    -0.02662     0.00000     0.00000     0.00000
  in kB      -0.03416    -0.03416    -0.02511     0.00000     0.00000     0.00000

 VOLUME and BASIS-vectors are now :
  energy-cutoff  :      400.00
  volume of cell :     1698.38
      direct lattice vectors                 reciprocal lattice vectors
     7.002000000  0.000000000  0.000000000     0.142816338  0.082455051  0.000000000
    -3.501000000  6.063909877  0.000000000     0.000000000  0.164910103  0.000000000
     0.000000000  0.000000000 40.000000000     0.000000000  0.000000000  0.025000000

[...]

 FORCES acting on ions
    electron-ion (+dipol)            ewald-force                    non-local-force                 convergence-correction
   0.172E-06 -.995E-07 0.919E-13   0.182E-11 -.945E-12 -.568E-13   -.939E-18 -.363E-19 0.953E-21   0.105E-11 -.591E-12 0.279E-12
   -.172E-06 0.995E-07 -.501E-11   -.749E-11 0.425E-11 0.284E-13   0.100E-17 -.173E-18 -.847E-21   -.105E-11 0.616E-12 0.285E-12
   -.263E+02 -.456E+02 0.404E+03   0.272E+02 0.472E+02 -.406E+03   -.939E+00 -.163E+01 0.268E+01   -.300E-06 -.519E-06 -.959E-05
   0.526E+02 0.272E-06 0.404E+03   -.545E+02 -.971E-11 -.406E+03   0.188E+01 0.177E-17 0.268E+01   0.599E-06 0.223E-10 -.959E-05
   -.526E+02 -.272E-06 -.404E+03   0.545E+02 -.146E-10 0.406E+03   -.188E+01 -.197E-17 -.268E+01   -.599E-06 -.223E-10 0.959E-05
   0.263E+02 -.456E+02 -.404E+03   -.272E+02 0.472E+02 0.406E+03   0.939E+00 -.163E+01 -.268E+01   0.300E-06 -.519E-06 0.959E-05
   0.263E+02 0.456E+02 -.404E+03   -.272E+02 -.472E+02 0.406E+03   0.939E+00 0.163E+01 -.268E+01   0.300E-06 0.519E-06 0.959E-05
   -.263E+02 0.456E+02 0.404E+03   0.272E+02 -.472E+02 -.406E+03   -.939E+00 0.163E+01 0.268E+01   -.300E-06 0.519E-06 -.959E-05
   0.157E-09 -.910E-10 -.290E-10   0.107E-13 0.000E+00 0.568E-13   0.000E+00 0.000E+00 0.444E-15   -.409E-14 0.342E-13 0.248E-11

 POSITION                                       TOTAL-FORCE (eV/Angst)
      0.00000      0.00000     20.00000        -0.000000     -0.000000     -0.000000
      0.00000      4.04261     20.00000        -0.000000     -0.000000     -0.000000
     -1.26071      5.90161     18.43853         0.000019      0.000033      0.000001
     -0.97959      2.02130     18.43853        -0.000038     -0.000000      0.000001
      0.97959      2.02130     21.56147         0.000038     -0.000000     -0.000001
      1.26071      5.90161     21.56147        -0.000019      0.000033     -0.000001
     -2.24029      4.20491     21.56147        -0.000019     -0.000033     -0.000001
      2.24029      4.20491     18.43853         0.000019     -0.000033      0.000001
    total drift:                                0.000000     -0.000000     -0.000000

  FREE ENERGIE OF THE ION-ELECTRON SYSTEM (eV)
  free  energy   TOTEN  =       -31.48807235 eV

  energy  without entropy=      -31.48807235  energy(sigma->0) =      -31.48807235

 Quasi-Newton relaxation of ions (Broydens 2nd method)
  g(Force)  = 0.413E-09   g(Stress)= 0.000E+00

 Reset! Starting new Quasi-Newton update for ions

[...]

 d Force = 0.3779723E-09[ 0.343E-09, 0.413E-09]  d Energy = 0.7803510E-07-0.777E-07
 d Force = 0.4648761E-03[ 0.465E-03, 0.465E-03]  d Ewald  = 0.4648764E-03-0.380E-09

[...]

 retain information from N=  1 steps
 eigenvalues of (default step * inverse Hessian matrix)
  average eigenvalue of G=   5.8154
 eigenvalue spectrum of G is  5.8154

[...]

 eigenvalue-minimisations  :  1642
 total energy-change (2. order) : 0.5318270E-08  ( 0.1525458E-09)
 number of electron      53.9999997 magnetization       5.9999999
 augmentation part       -4.7233352 magnetization       4.3101075

[...]

 d Force = 0.8678203E-09[ 0.215E-09, 0.152E-08]  d Energy =-0.4288950E-07 0.438E-07
 d Force = 0.7392231E-03[ 0.739E-03, 0.739E-03]  d Ewald  = 0.7392228E-03 0.313E-09

[...]

 d Force = 0.2869867E-10[ 0.148E-10, 0.426E-10]  d Energy = 0.3294508E-07-0.329E-07
 d Force =-0.1521729E-02[-0.152E-02,-0.152E-02]  d Ewald  =-0.1521729E-02 0.220E-09

[...]

 d Force = 0.1361186E-09[-0.492E-10, 0.321E-09]  d Energy =-0.3725290E-08 0.386E-08
 d Force =-0.3520277E-02[-0.352E-02,-0.352E-02]  d Ewald  =-0.3520278E-02 0.291E-09

[...]

 d Force =-0.4763279E-11[-0.217E-10, 0.122E-10]  d Energy = 0.3519290E-08-0.352E-08
 d Force = 0.7395621E-05[ 0.740E-05, 0.740E-05]  d Ewald  = 0.7395976E-05-0.355E-09

[...]

 eigenvalue-minimisations  :  1492
 total energy-change (2. order) :-0.1955414E-10  (-0.4010685E-10)
 number of electron      53.9999997 magnetization       6.0000007
 augmentation part       -4.7233347 magnetization       4.3101076

[...]

 eigenvalue-minimisations  :  1306
 total energy-change (2. order) : 0.3678906E-09  (-0.2678256E-09)
 number of electron      53.9999997 magnetization       6.0000004
 augmentation part       -4.7233347 magnetization       4.3101071

[...]

 eigenvalue-minimisations  :  1420
 total energy-change (2. order) :-0.1500666E-10  ( 0.1779922E-09)
 number of electron      53.9999997 magnetization       6.0000003
 augmentation part       -4.7233348 magnetization       4.3101069

 Broyden mixing:
  rms(total) = 0.14826E-06    rms(broyden)= 0.14823E-06
  rms(prec ) = 0.15080E-06
  weight for this iteration     100.00

 eigenvalues of (default mixing * dielectric matrix)
  average eigenvalue GAMMA=   1.1837
  3.5455  3.5455  3.1248  2.7620  2.7620  2.2727  1.5534  1.5534  1.6771  1.6771
  1.7974  1.4700  1.2740  0.6838  0.6838  0.0799  0.1513  0.1513  1.1343  0.2052
  1.0305  0.9163  0.9163  0.3627  0.3627  0.8115  0.4594  0.6350  0.6350  0.5265
  0.5655  0.6588  0.6588  0.6550  0.6550  0.6607

[...]

--------------------------------------- Iteration     10(   6)  ---------------------------------------

[...]

 eigenvalue-minimisations  :  1372
 total energy-change (2. order) : 0.4092726E-10  ( 0.1787336E-09)
 number of electron      53.9999997 magnetization       6.0000003
 augmentation part       -4.7233348 magnetization       4.3101069

 Free energy of the ion-electron system (eV)
  alpha Z        PSCENC =         8.00746852
  Ewald energy   TEWEN  =     13715.75431629
  -Hartree energ DENC   =    -15827.81171490
  -exchange      EXHF   =         0.00000000
  -V(xc)+E(xc)   XCENC  =      -114.52794535
  PAW double counting   =      3097.23273667    -2901.18816338
  entropy T*S    EENTRO =         0.00000000
  eigenvalues    EBANDS =      -457.92188519
  atomic energy  EATOM  =      2448.96711492
  Solvation  Ediel_sol  =         0.00000000
  free energy    TOTEN  =       -31.48807242 eV

  energy without entropy =      -31.48807242  energy(sigma->0) =      -31.48807242

 average (electrostatic) potential at core
  the test charge radii are     1.1394  1.1875
  (the norm of the test charge is              1.0000)
       1 -52.7318       2 -52.7318       3 -99.6396       4 -99.6396       5 -99.6396
       6 -99.6396       7 -99.6396       8 -99.6396

 E-fermi :  -4.2969     XC(G=0):  -1.6335     alpha+bet : -1.4754

[...]

 spin component 2

[...]

 k-point    16 :       0.3636    0.2727    0.0000
  band No.  band energies     occupation
      1     -16.6291      1.00000
      2     -16.5487      1.00000
      3     -16.2557      1.00000
      4     -16.1266      1.00000
      5     -16.0963      1.00000
      6     -16.0096      1.00000
      7      -8.0914      1.00000
      8      -7.9334      1.00000
      9      -7.5360      1.00000
     10      -7.4155      1.00000
     11      -7.3860      1.00000
     12      -6.9931      1.00000
     13      -6.9135      1.00000
     14      -6.8027      1.00000
     15      -6.3447      1.00000
     16      -6.1328      1.00000
     17      -5.8522      1.00000
     18      -5.7018      1.00000
     19      -5.6140      1.00000
     20      -5.3800      1.00000
     21      -5.2882      1.00000
     22      -5.2678      1.00000
     23      -4.9917      1.00000
     24      -4.9554      1.00000
     25      -2.3655      0.00000
     26      -2.3382      0.00000
     27      -2.2011      0.00000
     28      -2.1670      0.00000
     29      -1.9841      0.00000
     30      -1.9770      0.00000
     31      -1.6193      0.00000
     32      -1.5559      0.00000
     33      -1.5409      0.00000
     34      -1.4173      0.00000
     35       0.9471      0.00000
     36       1.0587      0.00000
     37       1.5129      0.00000
     38       1.7796      0.00000

[...]

 soft charge-density along one line, spin component           2
         0         1         2         3         4         5         6         7         8         9
 total charge-density along one line

------------------------ aborting loop because EDIFF is reached ----------------------------------------

[...]

  FORCE on cell =-STRESS in cart. coord.  units (eV):
  Direction    XX          YY          ZZ          XY          YZ          ZX
  Alpha Z     8.00747     8.00747     8.00747
  Ewald   15162.51747 15162.51747-16609.28174     0.00000    -0.00000     0.00000
  Hartree 15568.26165 15568.26165-15308.71158    -0.00000     0.00000     0.00000
  E(xc)    -215.64644  -215.64644  -216.11268    -0.00000    -0.00000    -0.00000
  Local  -31721.16995-31721.17003 30926.36142    -0.00007     0.00000     0.00000
  n-local   816.91149   817.25013   817.36741    -0.74812    -0.50599     0.12741
  augment  -160.26461  -160.26453  -160.74352     0.00007     0.00000     0.00000
  Kinetic   541.61224   540.74210   543.08658     1.31594    -0.34616     0.01420
  Fock        0.00000     0.00000     0.00000     0.00000     0.00000     0.00000
  Total      -0.03643    -0.03643    -0.02665    -0.00000     0.00000     0.00000
  in kB      -0.03437    -0.03437    -0.02514    -0.00000     0.00000     0.00000

 VOLUME and BASIS-vectors are now :
  energy-cutoff  :      400.00
  volume of cell :     1698.38
      direct lattice vectors                 reciprocal lattice vectors
     7.002000000  0.000000000  0.000000000     0.142816338  0.082455051  0.000000000
    -3.501000000  6.063909877  0.000000000     0.000000000  0.164910103  0.000000000
     0.000000000  0.000000000 40.000000000     0.000000000  0.000000000  0.025000000

  length of vectors
     7.002000000  7.002000000 40.000000000     0.164910103  0.164910103  0.025000000

 FORCES acting on ions
    electron-ion (+dipol)            ewald-force                    non-local-force                 convergence-correction
   0.171E-06 -.988E-07 -.122E-12   0.298E-11 0.437E-11 -.425E-11   0.987E-18 -.211E-18 0.106E-21   0.245E-12 0.161E-12 0.275E-11
   -.171E-06 0.988E-07 -.507E-11   -.106E-10 0.217E-11 0.158E-11   -.105E-17 0.491E-18 0.106E-21   -.313E-12 0.907E-13 0.288E-11
   -.263E+02 -.456E+02 0.404E+03   0.272E+02 0.472E+02 -.406E+03   -.939E+00 -.163E+01 0.268E+01   0.457E-06 0.791E-06 0.629E-06
   0.526E+02 0.271E-06 0.404E+03   -.545E+02 -.628E-11 -.406E+03   0.188E+01 0.183E-18 0.268E+01   -.913E-06 0.364E-10 0.629E-06
   -.526E+02 -.271E-06 -.404E+03   0.545E+02 -.117E-10 0.406E+03   -.188E+01 -.924E-18 -.268E+01   0.913E-06 -.368E-10 -.629E-06
   0.263E+02 -.456E+02 -.404E+03   -.272E+02 0.472E+02 0.406E+03   0.939E+00 -.163E+01 -.268E+01   -.457E-06 0.791E-06 -.629E-06
   0.263E+02 0.456E+02 -.404E+03   -.272E+02 -.472E+02 0.406E+03   0.939E+00 0.163E+01 -.268E+01   -.457E-06 -.791E-06 -.629E-06
   -.263E+02 0.456E+02 0.404E+03   0.272E+02 -.472E+02 -.406E+03   -.939E+00 0.163E+01 0.268E+01   0.457E-06 -.791E-06 0.629E-06
   0.160E-09 -.912E-10 -.103E-09   -.711E-14 -.711E-14 0.000E+00   -.111E-15 0.444E-15 0.000E+00   -.142E-12 0.479E-12 0.236E-10

 POSITION                                       TOTAL-FORCE (eV/Angst)
     -0.00000     -0.00000     20.00000        -0.000000      0.000000      0.000000
      0.00000      4.04261     20.00000        -0.000000      0.000000      0.000000
     -1.26070      5.90162     18.43854         0.000000      0.000000     -0.000000
     -0.97960      2.02130     18.43854        -0.000000      0.000000     -0.000000
      0.97960      2.02130     21.56146         0.000000      0.000000      0.000000
      1.26070      5.90162     21.56146        -0.000000      0.000000      0.000000
     -2.24030      4.20490     21.56146        -0.000000     -0.000000      0.000000
      2.24030      4.20490     18.43854         0.000000     -0.000000     -0.000000
    total drift:                                0.000000     -0.000000     -0.000000

  FREE ENERGIE OF THE ION-ELECTRON SYSTEM (eV)
  free  energy   TOTEN  =       -31.48807242 eV

  energy  without entropy=      -31.48807242  energy(sigma->0) =      -31.48807242

 d Force = 0.8627539E-11[ 0.337E-12, 0.169E-10]  d Energy = 0.2673914E-09-0.259E-09
 d Force =-0.1294158E-02[-0.129E-02,-0.129E-02]  d Ewald  =-0.1294158E-02 0.146E-09

 Quasi-Newton relaxation of ions (Broydens 2nd method)
  g(Force)  = 0.420E-13   g(Stress)= 0.000E+00

 retain information from N=  1 steps
 eigenvalues of (default step * inverse Hessian matrix)
  average eigenvalue of G=   9.6609
 eigenvalue spectrum of G is  9.6609

 reached required accuracy - stopping structural energy minimisation
 writing wavefunctions

 total charge

[...]

 magnetization (x)

# of ion       s       p       d       tot
    1        0.039   0.045   3.018   3.102
    2        0.039   0.045   3.018   3.102
    3       -0.002  -0.081   0.005  -0.077
    4       -0.002  -0.081   0.005  -0.078
    5       -0.002  -0.081   0.005  -0.078
    6       -0.002  -0.081   0.005  -0.078
    7       -0.002  -0.081   0.005  -0.077
    8       -0.002  -0.081   0.005  -0.078
tot          0.067  -0.397   6.066   5.736

 BZINTS: Fermi energy: -4.296853; 54.000000 electrons
         Band energy:-457.921885;  BLOECHL correction:  0.000000