 vasp.5.4.4.18Apr17-6-g9f103f2a35 (build Apr 25 2017 18:29:20) complex

 executed on      IFC91_ompi_syO2 date 2018.05.09  03:12:09

 INCAR:
 POTCAR:    PAW_PBE Cr 06Sep2000
 POTCAR:    PAW_PBE I 08Apr2002

 POTCAR:    PAW_PBE Cr 06Sep2000
   VRHFIN =Cr : d5 s1

   TITEL  = PAW_PBE Cr 06Sep2000
   POMASS =   51.996; ZVAL   =    6.000    mass and valenz
   ENMAX  =  227.080; ENMIN  =  170.310 eV

 POTCAR:    PAW_PBE I 08Apr2002
   VRHFIN =I : s2p5

   TITEL  = PAW_PBE I 08Apr2002
   POMASS =  126.904; ZVAL   =    7.000    mass and valenz
   ENMAX  =  175.647; ENMIN  =  131.735 eV

  PAW_PBE Cr 06Sep2000                  :
  PAW_PBE I 08Apr2002                   :

 POSCAR: POSCAR
  positions in direct lattice
  velocities in cartesian coordinates
 exchange correlation table for  LEXCH =        8
   RHO(1)=    0.500       N(1)  =     2000
   RHO(2)=  100.500       N(2)  =     4000

 ion  position               nearest neighbor table
   1  0.000  0.000  0.500-   7 2.74   8 2.74   5 2.74   6 2.74   3 2.74   4 2.74
   2  0.333  0.667  0.500-   5 2.74   8 2.74   6 2.74   4 2.74   3 2.74   7 2.74
   3  0.307  0.973  0.461-   2 2.74   1 2.74
   4  0.027  0.333  0.461-   2 2.74   1 2.74
   5  0.307  0.333  0.539-   2 2.74   1 2.74
   6  0.667  0.973  0.539-   2 2.74   1 2.74
   7  0.027  0.693  0.539-   1 2.74   2 2.74
   8  0.667  0.693  0.461-   2 2.74   1 2.74

  LATTYP: Found a hexagonal cell.
 ALAT       =     7.0020000000
 C/A-ratio  =     5.7126535276

  Lattice vectors:

 A1 = (   7.0020000000,   0.0000000000,   0.0000000000)
 A2 = (  -3.5010000000,   6.0639098773,   0.0000000000)
 A3 = (   0.0000000000,   0.0000000000,  40.0000000000)

Analysis of symmetry for initial positions (statically):
 Subroutine PRICEL returns:
 Original cell was already a primitive cell.

 Routine SETGRP: Setting up the symmetry group for a
 hexagonal supercell.

 Subroutine GETGRP returns: Found 12 space group operations
 (whereof  6 operations were pure point group operations)
 out of a pool of 24 trial point group operations.

The static configuration has the point symmetry D_3 .
 The point group associated with its full space group is D_3d.

Analysis of symmetry for dynamics (positions and initial velocities):
 Subroutine PRICEL returns:
 Original cell was already a primitive cell.

[...]

The dynamic configuration has the point symmetry D_3 .
 The point group associated with its full space group is D_3d.

Analysis of structural, dynamic, and magnetic symmetry:
 Subroutine PRICEL returns:
 Original cell was already a primitive cell.

 Routine SETGRP: Setting up the symmetry group for a
 hexagonal supercell.

 Subroutine GETGRP returns: Found 12 space group operations
 (whereof  6 operations were pure point group operations)
 out of a pool of 24 trial point group operations.

The magnetic configuration has the point symmetry D_3 .
 The point group associated with its full space group is D_3d.

 Subroutine INISYM returns: Found 12 space group operations
 (whereof  6 operations are pure point group operations),
 and found     1 'primitive' translations

 KPOINTS: K-Points   # First line comment

Automatic generation of k-mesh.
Space group operators:
 irot       det(A)        alpha          n_x          n_y          n_z        tau_x        tau_y        tau_z
    1     1.000000     0.000000     1.000000     0.000000     0.000000     0.000000     0.000000     0.000000
    2     1.000000   120.000000     0.000000     0.000000    -1.000000     0.000000     0.000000     0.000000
    3     1.000000   120.000000     0.000000     0.000000     1.000000     0.000000     0.000000     0.000000
    4     1.000000   180.000000     0.866025    -0.500000     0.000000     0.000000     0.000000     0.000000
    5     1.000000   180.000000     0.000000     1.000000     0.000000     0.000000     0.000000     0.000000
    6     1.000000   180.000000     0.866025     0.500000     0.000000     0.000000     0.000000     0.000000
    7    -1.000000     0.000000     1.000000     0.000000     0.000000     0.333333     0.666667     0.000000
    8    -1.000000   120.000000     0.000000     0.000000    -1.000000     0.333333     0.666667     0.000000
    9    -1.000000   120.000000     0.000000     0.000000     1.000000     0.333333     0.666667     0.000000
   10    -1.000000   180.000000     0.866025    -0.500000     0.000000     0.333333     0.666667     0.000000
   11    -1.000000   180.000000     0.000000     1.000000     0.000000     0.333333     0.666667     0.000000
   12    -1.000000   180.000000     0.866025     0.500000     0.000000     0.333333     0.666667     0.000000

 Subroutine IBZKPT returns following result:

 Found     16 irreducible k-points:

 Following reciprocal coordinates:
            Coordinates               Weight
  0.000000  0.000000  0.000000      1.000000
  0.090909 -0.000000  0.000000      6.000000
  0.181818 -0.000000  0.000000      6.000000
  0.272727 -0.000000  0.000000      6.000000
  0.363636 -0.000000  0.000000      6.000000
  0.454545 -0.000000  0.000000      6.000000
  0.090909  0.090909  0.000000      6.000000
  0.181818  0.090909  0.000000     12.000000
  0.272727  0.090909  0.000000     12.000000
  0.363636  0.090909  0.000000     12.000000
  0.454545  0.090909  0.000000      6.000000
  0.181818  0.181818  0.000000      6.000000
  0.272727  0.181818  0.000000     12.000000
  0.363636  0.181818  0.000000     12.000000
  0.272727  0.272727  0.000000      6.000000
  0.363636  0.272727  0.000000      6.000000

 Following cartesian coordinates:
            Coordinates               Weight
  0.000000  0.000000  0.000000      1.000000
  0.012983  0.007496  0.000000      6.000000
  0.025967  0.014992  0.000000      6.000000
  0.038950  0.022488  0.000000      6.000000
  0.051933  0.029984  0.000000      6.000000
  0.064917  0.037480  0.000000      6.000000
  0.012983  0.022488  0.000000      6.000000
  0.025967  0.029984  0.000000     12.000000
  0.038950  0.037480  0.000000     12.000000
  0.051933  0.044975  0.000000     12.000000
  0.064917  0.052471  0.000000      6.000000
  0.025967  0.044975  0.000000      6.000000
  0.038950  0.052471  0.000000     12.000000
  0.051933  0.059967  0.000000     12.000000
  0.038950  0.067463  0.000000      6.000000
  0.051933  0.074959  0.000000      6.000000

 TETIRR: Found     66 inequivalent tetrahedra from      726

 SYSTEM =  monolayer-CrI3
 POSCAR =  POSCAR

 Startparameter for this run:
   NWRITE =      2    write-flag & timer
   PREC   = accura    normal or accurate (medium, high low for compatibility)
   ISTART =      0    job   : 0-new  1-cont  2-samecut
   ICHARG =      2    charge: 1-file 2-atom 10-const
   ISPIN  =      2    spin polarized calculation?
   LNONCOLLINEAR =      F non collinear calculations
   LSORBIT =      F    spin-orbit coupling
   INIWAV =      1    electr: 0-lowe 1-rand  2-diag
   LASPH  =      F    aspherical Exc in radial PAW
   METAGGA=      F    non-selfconsistent MetaGGA calc.

 Electronic Relaxation 1
   ENCUT  =  250.0 eV  18.37 Ry    4.29 a.u.   9.03  9.03 51.57*2*pi/ulx,y,z
   ENINI  =  250.0     initial cutoff
   ENAUG  =  402.1 eV  augmentation charge cutoff
   NELM   =     60;   NELMIN=  6; NELMDL= -5     # of ELM steps
   EDIFF  = 0.1E-06   stopping-criterion for ELM
   LREAL  =      F    real-space projection
   NLSPLINE    = F    spline interpolate recip. space projectors
   LCOMPAT=      F    compatible to vasp.4.4
   GGA_COMPAT  = T    GGA compatible to vasp.4.4-vasp.4.6
   LMAXPAW     = -100 max onsite density
   LMAXMIX     =    2 max onsite mixed and CHGCAR
   VOSKOWN=      0    Vosko Wilk Nusair interpolation
   ROPT   =    0.00000   0.00000
 Ionic relaxation
   EDIFFG = -.1E-05   stopping-criterion for IOM
   NSW    =    100    number of steps for IOM
   NBLOCK =      1;   KBLOCK =    100    inner block; outer block
   IBRION =      2    ionic relax: 0-MD 1-quasi-New 2-CG
   NFREE  =      1    steps in history (QN), initial steepest desc. (CG)
   ISIF   =      2    stress and relaxation
   IWAVPR =     11    prediction:  0-non 1-charg 2-wave 3-comb
   ISYM   =      2    0-nonsym 1-usesym 2-fastsym
   LCORR  =      T    Harris-Foulkes like correction to forces

   POTIM  = 0.0200    time-step for ionic-motion
   TEIN   =    0.0    initial temperature
   TEBEG  =    0.0;   TEEND  =   0.0 temperature during run
   SMASS  =  -3.00    Nose mass-parameter (am)
   estimated Nose-frequenzy (Omega)   =  0.10E-29 period in steps =****** mass=  -0.112E-26a.u.
   SCALEE = 1.0000    scale energy and forces
   NPACO  =    256;   APACO  = 16.0  distance and # of slots for P.C.
   PSTRESS=    0.0 pullay stress

  Mass of Ions in am
   POMASS =  52.00126.90
  Ionic Valenz
   ZVAL   =   6.00  7.00
  Atomic Wigner-Seitz radii
  virtual crystal weights
   VCA    =   1.00  1.00
   NELECT =      54.0000    total number of electrons
   NUPDOWN=      -1.0000    fix difference up-down

 DOS related values:
   EMIN   =  10.00;   EMAX   =-10.00  energy-range for DOS
   EFERMI =   0.00
   ISMEAR =    -5;   SIGMA  =   0.05  broadening in eV -4-tet -1-fermi 0-gaus

 Electronic relaxation 2 (details)
   IALGO  =     38    algorithm
   LDIAG  =      T    sub-space diagonalisation (order eigenvalues)
   LSUBROT=      F    optimize rotation matrix (better conditioning)
   TURBO    =      0    0=normal 1=particle mesh
   IRESTART =      0    0=no restart 2=restart with 2 vectors
   NREBOOT  =      0    no. of reboots
   NMIN     =      0    reboot dimension
   EREF     =   0.00    reference energy to select bands
   IMIX   =      4    mixing-type and parameters
     AMIX     =   0.40;   BMIX     =  1.00
     AMIX_MAG =   1.60;   BMIX_MAG =  1.00
     AMIN     =   0.10
     WC   =   100.;   INIMIX=   1;  MIXPRE=   1;  MAXMIX=  40

 Intra band minimization:
   WEIMIN = 0.0010     energy-eigenvalue tresh-hold
   EBREAK =  0.66E-09  absolut break condition
   DEPER  =   0.30     relativ break condition

   TIME   =   0.40     timestep for ELM

  volume/ion in A,a.u.               =     212.30      1432.65
  Fermi-wavevector in a.u.,A,eV,Ry     =   0.518634  0.980076  3.659714  0.268981
  Thomas-Fermi vector in A             =   1.535622

 Write flags
   LWAVE        =      T    write WAVECAR
   LDOWNSAMPLE  =      F    k-point downsampling of WAVECAR
   LCHARG       =      T    write CHGCAR
   LVTOT        =      F    write LOCPOT, total local potential
   LVHAR        =      F    write LOCPOT, Hartree potential only
   LELF         =      F    write electronic localiz. function (ELF)
   LORBIT       =     11    0 simple, 1 ext, 2 COOP (PROOUT), +10 PAW based schemes

 Dipole corrections
   LMONO  =      F    monopole corrections only (constant potential shift)
   LDIPOL =      F    correct potential (dipole corrections)
   IDIPOL =      0    1-x, 2-y, 3-z, 4-all directions
   EPSILON=  1.0000000 bulk dielectric constant

 Exchange correlation treatment:
   GGA     =    PE    GGA type
   VOSKOWN=      0    Vosko Wilk Nusair interpolation
   LHFCALC =     F    Hartree Fock is set to
   LHFONE  =     F    Hartree Fock one center treatment
   AEXX    =    0.0000 exact exchange contribution

 Linear response parameters
[...]
  E(xc)    -215.61077  -215.61076  -216.07731     0.00000    -0.00001    -0.00000
  Local  -31721.16852-31721.16887 30926.04032    -0.00030     0.00000     0.00000
  n-local   817.09501   817.43513   817.55041    -0.74984    -0.50468     0.12711
  augment  -160.22004  -160.21974  -160.70794     0.00026     0.00000    -0.00000
  Kinetic   541.49639   540.62640   542.97264     1.31394    -0.34469     0.01414
  Fock        0.00000     0.00000     0.00000     0.00000     0.00000     0.00000
  Total      -0.05662    -0.05662    -0.05678     0.00000     0.00000     0.00000
  in kB      -0.05341    -0.05341    -0.05356     0.00000     0.00000     0.00000

 VOLUME and BASIS-vectors are now :
  energy-cutoff  :      250.00
  volume of cell :     1698.38
      direct lattice vectors                 reciprocal lattice vectors
     7.002000000  0.000000000  0.000000000     0.142816338  0.082455051  0.000000000
    -3.501000000  6.063909877  0.000000000     0.000000000  0.164910103  0.000000000
     0.000000000  0.000000000 40.000000000     0.000000000  0.000000000  0.025000000

[...]

 FORCES acting on ions
    electron-ion (+dipol)            ewald-force                    non-local-force                 convergence-correction
   0.546E-06 -.315E-06 -.412E-12   -.109E-11 0.583E-12 -.142E-13   0.813E-18 -.370E-18 -.847E-21   -.157E-11 0.927E-12 -.211E-12
   -.546E-06 0.315E-06 -.291E-11   -.104E-10 0.602E-11 0.284E-13   -.758E-18 -.357E-18 0.953E-21   0.155E-11 -.940E-12 -.217E-12
   -.263E+02 -.456E+02 0.404E+03   0.272E+02 0.472E+02 -.406E+03   -.937E+00 -.162E+01 0.268E+01   -.657E-06 -.114E-05 -.100E-04
   0.526E+02 0.135E-05 0.404E+03   -.545E+02 -.533E-11 -.406E+03   0.187E+01 0.106E-17 0.268E+01   0.131E-05 0.406E-10 -.100E-04
   -.526E+02 -.135E-05 -.404E+03   0.545E+02 -.104E-10 0.406E+03   -.187E+01 -.853E-18 -.268E+01   -.131E-05 -.406E-10 0.100E-04
   0.263E+02 -.456E+02 -.404E+03   -.272E+02 0.472E+02 0.406E+03   0.937E+00 -.162E+01 -.268E+01   0.657E-06 -.114E-05 0.100E-04
   0.263E+02 0.456E+02 -.404E+03   -.272E+02 -.472E+02 0.406E+03   0.937E+00 0.162E+01 -.268E+01   0.657E-06 0.114E-05 0.100E-04
   -.263E+02 0.456E+02 0.404E+03   0.272E+02 -.472E+02 -.406E+03   -.937E+00 0.162E+01 0.268E+01   -.657E-06 0.114E-05 -.100E-04
   0.158E-09 -.899E-10 -.155E-10   -.107E-13 0.000E+00 0.568E-13   -.444E-15 0.222E-15 -.888E-15   -.428E-13 -.369E-13 -.212E-11

 POSITION                                       TOTAL-FORCE (eV/Angst)
      0.00000      0.00000     20.00000         0.000000     -0.000000      0.000000
      0.00000      4.04261     20.00000         0.000000     -0.000000      0.000000
     -1.26071      5.90161     18.43851         0.000806      0.001396     -0.001606
     -0.97959      2.02130     18.43851        -0.001613     -0.000000     -0.001606
      0.97959      2.02130     21.56149         0.001613     -0.000000      0.001606
      1.26071      5.90161     21.56149        -0.000806      0.001396      0.001606
     -2.24029      4.20491     21.56149        -0.000806     -0.001396      0.001606
      2.24029      4.20491     18.43851         0.000806     -0.001396     -0.001606
    total drift:                                0.000000     -0.000000     -0.000000

  FREE ENERGIE OF THE ION-ELECTRON SYSTEM (eV)
  free  energy   TOTEN  =       -31.49358239 eV

  energy  without entropy=      -31.49358239  energy(sigma->0) =      -31.49358239

[...]

 d Force = 0.5960722E-07[ 0.593E-07, 0.600E-07]  d Energy = 0.1327758E-06-0.732E-07
 d Force = 0.8574190E-02[ 0.857E-02, 0.857E-02]  d Ewald  = 0.8574189E-02 0.407E-09

 Steepest descent step on ions:
 trial-energy change:   -0.000000  1 .order   -0.000000   -0.000000   -0.000000
  (g-gl).g = 0.600E-07      g.g   = 0.600E-07  gl.gl    = 0.000E+00
 g(Force)  = 0.600E-07   g(Stress)= 0.000E+00 ortho     = 0.000E+00
 gamma     =   0.00000
 trial     =   1.00000
 opt step  =   4.00000  (harmonic =  85.75090) maximal distance =0.00001245
 next E    =   -31.493585   (d E  =  -0.00000)

[...]

 d Force = 0.8423133E-06[ 0.632E-06, 0.105E-05]  d Energy =-0.2962138E-06 0.114E-05
 d Force = 0.2057750E+00[ 0.206E+00, 0.206E+00]  d Ewald  = 0.2057750E+00 0.262E-09

[...]

 d Force = 0.4403558E-06[-0.384E-06, 0.126E-05]  d Energy =-0.1649360E-06 0.605E-06
 d Force = 0.4115379E+00[ 0.412E+00, 0.412E+00]  d Ewald  = 0.4115379E+00-0.507E-09

[...]

 d Force = 0.4192544E-07[-0.551E-08, 0.894E-07]  d Energy = 0.4170302E-06-0.375E-06
 d Force =-0.9581998E-01[-0.958E-01,-0.958E-01]  d Ewald  =-0.9581998E-01 0.218E-09

[...]

 d Force = 0.4200120E-07[ 0.403E-07, 0.437E-07]  d Energy = 0.5903516E-06-0.548E-06
 d Force =-0.1709245E-01[-0.171E-01,-0.171E-01]  d Ewald  =-0.1709245E-01 0.195E-09

 Conjugate gradient step on ions:
 trial-energy change:   -0.000001  1 .order   -0.000000   -0.000000   -0.000000
  (g-gl).g = 0.201E-08      g.g   = 0.250E-08  gl.gl    = 0.600E-07
 g(Force)  = 0.250E-08   g(Stress)= 0.000E+00 ortho     = 0.493E-09
 gamma     =   0.03347
 trial     =  17.36476
 opt step  =  69.45905  (harmonic = 225.30464) maximal distance =0.00005291
 next E    =   -31.493583   (d E  =  -0.00000)

[...]

 d Force = 0.1061744E-06[ 0.914E-07, 0.121E-06]  d Energy =-0.1173707E-06 0.224E-06
 d Force =-0.5127724E-01[-0.513E-01,-0.513E-01]  d Ewald  =-0.5127724E-01-0.295E-09

[...]

 d Force = 0.1238968E-06[ 0.650E-07, 0.183E-06]  d Energy =-0.3321020E-06 0.456E-06
 d Force =-0.1025541E+00[-0.103E+00,-0.103E+00]  d Ewald  =-0.1025541E+00 0.258E-09

[...]

 d Force =-0.9610482E-07[-0.322E-06, 0.130E-06]  d Energy = 0.6756368E-06-0.772E-06
 d Force =-0.2051065E+00[-0.205E+00,-0.205E+00]  d Ewald  =-0.2051065E+00-0.709E-09

[...]

 d Force =-0.1709578E-10[-0.314E-09, 0.280E-09]  d Energy = 0.1775352E-06-0.178E-06
 d Force =-0.5244855E-02[-0.524E-02,-0.524E-02]  d Ewald  =-0.5244855E-02 0.122E-09

[...]

 eigenvalue-minimisations  :  1594
 total energy-change (2. order) :-0.1017725E-08  ( 0.9674538E-12)
 number of electron      53.9999963 magnetization       6.0000005
 augmentation part       -4.7238620 magnetization       4.3115365

[...]

 Conjugate gradient step on ions:
 trial-energy change:   -0.000000  1 .order   -0.000000   -0.000000   -0.000000
  (g-gl).g = 0.155E-10      g.g   = 0.251E-11  gl.gl    = 0.250E-08
 g(Force)  = 0.251E-11   g(Stress)= 0.000E+00 ortho     =-0.288E-12
 gamma     =   0.00621
 trial     =  61.10444
 opt step  =  75.46074  (harmonic =  75.46074) maximal distance =0.00000155
 next E    =   -31.493584   (d E  =  -0.00000)

[...]

 eigenvalue-minimisations  :  1606
 total energy-change (2. order) : 0.2241904E-09  ( 0.2489395E-12)
 number of electron      53.9999963 magnetization       5.9999993
 augmentation part       -4.7238622 magnetization       4.3115358

[...]

 d Force = 0.3604333E-11[ 0.348E-12, 0.686E-11]  d Energy = 0.7717063E-09-0.768E-09
 d Force = 0.8169895E-03[ 0.817E-03, 0.817E-03]  d Ewald  = 0.8169897E-03-0.155E-09

[...]

 d Force = 0.1338758E-11[-0.172E-10, 0.199E-10]  d Energy =-0.5170477E-09 0.518E-09
 d Force = 0.1977081E-02[ 0.198E-02, 0.198E-02]  d Ewald  = 0.1977081E-02-0.529E-09

[...]

 eigenvalue-minimisations  :  1360
 total energy-change (2. order) : 0.3028617E-09  (-0.3034047E-12)
 number of electron      53.9999963 magnetization       5.9999993
 augmentation part       -4.7238620 magnetization       4.3115365

[...]

 d Force = 0.8448799E-12[ 0.110E-13, 0.168E-11]  d Energy =-0.9322321E-09 0.933E-09
 d Force = 0.3352074E-03[ 0.335E-03, 0.335E-03]  d Ewald  = 0.3352066E-03 0.864E-09

[...]

 eigenvalue-minimisations  :  1546
 total energy-change (2. order) :-0.2805791E-09  (-0.9156239E-12)
 number of electron      53.9999963 magnetization       5.9999997
 augmentation part       -4.7238621 magnetization       4.3115364

[...]

 eigenvalue-minimisations  :  1324
 total energy-change (2. order) : 0.3183231E-10  ( 0.1875943E-11)
 number of electron      53.9999963 magnetization       5.9999996
 augmentation part       -4.7238620 magnetization       4.3115364

[...]

 Broyden mixing:
  rms(total) = 0.12775E-06    rms(broyden)= 0.12774E-06
  rms(prec ) = 0.12926E-06
  weight for this iteration     100.00

 eigenvalues of (default mixing * dielectric matrix)
  average eigenvalue GAMMA=   1.3847
  9.2366  4.5781  3.8457  2.5624  2.5624  2.4692  2.2542  1.9961  1.8822  1.8822
  1.2509  1.2509  1.3594  1.3594  0.0474  1.2060  1.0946  1.0946  0.1871  0.1871
  0.8799  0.8799  0.3597  0.3597  0.2467  0.6693  0.6693  0.3587  0.8266  0.8266
  0.4170  0.8331  0.5063  0.7133  0.5954  0.5954  0.6667  0.6667  0.6280

[...]

--------------------------------------- Iteration     22(   6)  ---------------------------------------

[...]

 eigenvalue-minimisations  :  1348
 total energy-change (2. order) :-0.8731149E-10  ( 0.1802283E-11)
 number of electron      53.9999963 magnetization       5.9999996
 augmentation part       -4.7238620 magnetization       4.3115364

 Free energy of the ion-electron system (eV)
  alpha Z        PSCENC =         8.00746852
  Ewald energy   TEWEN  =     13715.22007896
  -Hartree energ DENC   =    -15827.19666432
  -exchange      EXHF   =         0.00000000
  -V(xc)+E(xc)   XCENC  =      -114.54754751
  PAW double counting   =      3096.46353072    -2900.45904631
  entropy T*S    EENTRO =         0.00000000
  eigenvalues    EBANDS =      -457.89984266
  atomic energy  EATOM  =      2448.91843854
  Solvation  Ediel_sol  =         0.00000000
  free energy    TOTEN  =       -31.49358405 eV

  energy without entropy =      -31.49358405  energy(sigma->0) =      -31.49358405

 average (electrostatic) potential at core
  the test charge radii are     1.1394  1.1875
  (the norm of the test charge is              1.0000)
       1 -52.7308       2 -52.7308       3 -99.6334       4 -99.6334       5 -99.6334
       6 -99.6334       7 -99.6334       8 -99.6334

 E-fermi :  -4.2965     XC(G=0):  -1.6378     alpha+bet : -1.4754

[...]

 spin component 2

[...]

 k-point    16 :       0.3636    0.2727    0.0000
  band No.  band energies     occupation
      1     -16.6282      1.00000
      2     -16.5478      1.00000
      3     -16.2550      1.00000
      4     -16.1259      1.00000
      5     -16.0956      1.00000
      6     -16.0091      1.00000
      7      -8.0921      1.00000
      8      -7.9340      1.00000
      9      -7.5360      1.00000
     10      -7.4153      1.00000
     11      -7.3859      1.00000
     12      -6.9924      1.00000
     13      -6.9128      1.00000
     14      -6.8021      1.00000
     15      -6.3441      1.00000
     16      -6.1335      1.00000
     17      -5.8525      1.00000
     18      -5.7019      1.00000
     19      -5.6141      1.00000
     20      -5.3797      1.00000
     21      -5.2883      1.00000
     22      -5.2671      1.00000
     23      -4.9912      1.00000
     24      -4.9548      1.00000
     25      -2.3651      0.00000
     26      -2.3377      0.00000
     27      -2.1996      0.00000
     28      -2.1665      0.00000
     29      -1.9826      0.00000
     30      -1.9756      0.00000
     31      -1.6167      0.00000
     32      -1.5538      0.00000
     33      -1.5386      0.00000
     34      -1.4154      0.00000
     35       0.9456      0.00000
     36       1.0577      0.00000
     37       1.5127      0.00000
     38       1.7789      0.00000

[...]

 soft charge-density along one line, spin component           2
         0         1         2         3         4         5         6         7         8         9
 total charge-density along one line

------------------------ aborting loop because EDIFF is reached ----------------------------------------

[...]

  FORCE on cell =-STRESS in cart. coord.  units (eV):
  Direction    XX          YY          ZZ          XY          YZ          ZX
  Alpha Z     8.00747     8.00747     8.00747
  Ewald   15162.09810 15162.09810-16608.97724     0.00000     0.00000    -0.00000
  Hartree 15567.79780 15567.79780-15308.39896    -0.00000     0.00000     0.00000
  E(xc)    -215.60707  -215.60707  -216.07399     0.00000    -0.00001    -0.00000
  Local  -31720.44604-31720.44639 30925.57673    -0.00030     0.00000     0.00000
  n-local   817.08108   817.42070   817.53999    -0.74909    -0.50466     0.12720
  augment  -160.21838  -160.21808  -160.70740     0.00026    -0.00000    -0.00000
  Kinetic   541.48317   540.61202   542.96156     1.31535    -0.34489     0.01414
  Fock        0.00000     0.00000     0.00000     0.00000     0.00000     0.00000
  Total      -0.06967    -0.06967    -0.07184     0.00000     0.00000    -0.00000
  in kB      -0.06572    -0.06572    -0.06777     0.00000     0.00000    -0.00000

 VOLUME and BASIS-vectors are now :
  energy-cutoff  :      250.00
  volume of cell :     1698.38
      direct lattice vectors                 reciprocal lattice vectors
     7.002000000  0.000000000  0.000000000     0.142816338  0.082455051  0.000000000
    -3.501000000  6.063909877  0.000000000     0.000000000  0.164910103  0.000000000
     0.000000000  0.000000000 40.000000000     0.000000000  0.000000000  0.025000000

  length of vectors
     7.002000000  7.002000000 40.000000000     0.164910103  0.164910103  0.025000000

 FORCES acting on ions
    electron-ion (+dipol)            ewald-force                    non-local-force                 convergence-correction
   0.545E-06 -.315E-06 -.474E-12   -.112E-11 0.597E-12 -.568E-13   0.205E-17 -.109E-17 0.000E+00   0.685E-12 -.334E-12 0.877E-12
   -.545E-06 0.315E-06 -.294E-11   -.103E-10 0.609E-11 -.284E-13   -.157E-17 0.125E-17 0.847E-21   -.593E-12 0.141E-12 0.903E-12
   -.263E+02 -.455E+02 0.404E+03   0.272E+02 0.472E+02 -.406E+03   -.937E+00 -.162E+01 0.268E+01   0.570E-06 0.988E-06 0.123E-05
   0.526E+02 0.133E-05 0.404E+03   -.545E+02 -.610E-11 -.406E+03   0.187E+01 0.176E-18 0.268E+01   -.114E-05 0.478E-10 0.123E-05
   -.526E+02 -.133E-05 -.404E+03   0.545E+02 -.957E-11 0.406E+03   -.187E+01 0.144E-17 -.268E+01   0.114E-05 -.477E-10 -.123E-05
   0.263E+02 -.455E+02 -.404E+03   -.272E+02 0.472E+02 0.406E+03   0.937E+00 -.162E+01 -.268E+01   -.571E-06 0.988E-06 -.123E-05
   0.263E+02 0.455E+02 -.404E+03   -.272E+02 -.472E+02 0.406E+03   0.937E+00 0.162E+01 -.268E+01   -.570E-06 -.988E-06 -.123E-05
   -.263E+02 0.455E+02 0.404E+03   0.272E+02 -.472E+02 -.406E+03   -.937E+00 0.162E+01 0.268E+01   0.571E-06 -.988E-06 0.123E-05
   0.158E-09 -.908E-10 -.534E-10   -.355E-14 0.142E-13 -.114E-12   -.222E-15 -.222E-15 -.888E-15   0.148E-12 -.305E-12 0.771E-11

 POSITION                                       TOTAL-FORCE (eV/Angst)
      0.00000     -0.00000     20.00000        -0.000000     -0.000000     -0.000000
      0.00000      4.04261     20.00000         0.000000      0.000000     -0.000000
     -1.26049      5.90198     18.43838         0.000000      0.000000     -0.000000
     -0.98003      2.02130     18.43838        -0.000000      0.000000     -0.000000
      0.98003      2.02130     21.56162         0.000000      0.000000      0.000000
      1.26049      5.90198     21.56162        -0.000000      0.000000      0.000000
     -2.24051      4.20453     21.56162        -0.000000     -0.000000      0.000000
      2.24051      4.20453     18.43838         0.000000     -0.000000     -0.000000
    total drift:                                0.000000     -0.000000     -0.000000

  FREE ENERGIE OF THE ION-ELECTRON SYSTEM (eV)
  free  energy   TOTEN  =       -31.49358405 eV

  energy  without entropy=      -31.49358405  energy(sigma->0) =      -31.49358405

 d Force = 0.1044290E-11[-0.131E-12, 0.222E-11]  d Energy = 0.1218723E-08-0.122E-08
 d Force =-0.3183970E-03[-0.318E-03,-0.318E-03]  d Ewald  =-0.3183964E-03-0.633E-09

 Conjugate gradient step on ions:
 trial-energy change:   -0.000000  1 .order   -0.000000   -0.000000    0.000000
  (g-gl).g = 0.239E-13      g.g   = 0.246E-13  gl.gl    = 0.145E-12
 g(Force)  = 0.246E-13   g(Stress)= 0.000E+00 ortho     = 0.354E-15
 gamma     =   0.16437
 trial     =  89.95777
 opt step  =  84.93772  (harmonic =  84.93772) maximal distance =0.00000024
 next E    =   -31.493584   (d E  =  -0.00000)

 reached required accuracy - stopping structural energy minimisation
 writing wavefunctions

 total charge

[...]

 magnetization (x)

# of ion       s       p       d       tot
    1        0.039   0.045   3.016   3.100
    2        0.039   0.045   3.016   3.100
    3       -0.002  -0.081   0.005  -0.077
    4       -0.002  -0.081   0.005  -0.078
    5       -0.002  -0.081   0.005  -0.078
    6       -0.002  -0.081   0.005  -0.078
    7       -0.002  -0.081   0.005  -0.077
    8       -0.002  -0.081   0.005  -0.078
tot          0.068  -0.397   6.062   5.733

 BZINTS: Fermi energy: -4.296499; 54.000000 electrons
         Band energy:-457.899843;  BLOECHL correction:  0.000000